%%MatrixMarket matrix coordinate integer general
%
1000	100	11221
1 1 6
1 4 11
1 6 12
1 7 11
1 9 6
1 12 9
1 13 7
1 14 9
1 16 10
1 20 12
1 21 7
1 22 4
1 25 4
1 27 12
1 29 1
1 31 15
1 34 7
1 35 8
1 36 1
1 37 12
1 38 9
1 39 4
1 40 6
1 41 4
1 43 2
1 46 6
1 47 11
1 48 8
1 49 8
1 51 1
1 53 1
1 56 11
1 57 3
1 59 8
1 61 2
1 62 10
1 63 4
1 64 2
1 68 10
1 69 8
1 76 9
1 77 9
1 78 9
1 79 5
1 80 1
1 82 8
1 84 5
1 85 12
1 86 10
1 87 2
1 88 1
1 89 14
1 93 1
1 94 7
1 95 9
1 96 5
1 97 1
1 98 10
1 99 1
1 100 22
2 1 3
2 4 8
2 5 1
2 6 7
2 7 4
2 9 19
2 10 2
2 11 1
2 12 13
2 13 7
2 14 9
2 16 10
2 19 1
2 20 6
2 21 10
2 22 4
2 23 1
2 25 7
2 27 5
2 31 4
2 33 1
2 34 10
2 35 8
2 37 8
2 38 10
2 39 12
2 40 13
2 41 9
2 46 12
2 47 5
2 48 6
2 49 6
2 50 3
2 51 1
2 52 2
2 56 5
2 57 5
2 59 7
2 62 7
2 63 9
2 66 1
2 68 12
2 69 2
2 70 1
2 71 1
2 75 1
2 76 11
2 77 6
2 78 9
2 79 7
2 82 10
2 84 12
2 85 9
2 86 10
2 89 6
2 92 1
2 94 5
2 95 6
2 96 5
2 98 7
2 99 1
2 100 12
3 1 8
3 3 1
3 4 11
3 6 15
3 7 11
3 8 1
3 9 3
3 11 1
3 12 7
3 13 5
3 14 11
3 16 8
3 20 6
3 21 8
3 22 10
3 24 1
3 25 7
3 27 6
3 28 1
3 31 8
3 34 6
3 35 10
3 37 14
3 38 8
3 39 13
3 40 13
3 41 7
3 46 5
3 47 4
3 48 13
3 49 4
3 50 1
3 53 1
3 55 1
3 56 9
3 57 12
3 59 18
3 62 10
3 63 5
3 64 1
3 65 1
3 68 5
3 69 15
3 72 1
3 76 11
3 77 6
3 78 7
3 79 7
3 82 11
3 84 6
3 85 7
3 86 13
3 87 1
3 89 7
3 94 6
3 95 16
3 96 7
3 98 3
3 100 5
4 1 9
4 4 2
4 6 6
4 7 11
4 9 8
4 12 7
4 13 6
4 14 7
4 16 9
4 18 1
4 19 1
4 20 8
4 21 7
4 22 18
4 24 1
4 25 14
4 27 12
4 28 1
4 31 4
4 32 2
4 34 5
4 35 10
4 37 3
4 38 7
4 39 7
4 40 5
4 41 10
4 43 4
4 45 1
4 46 9
4 47 13
4 48 2
4 49 6
4 50 1
4 53 1
4 56 3
4 57 8
4 59 8
4 60 1
4 62 7
4 63 7
4 67 1
4 68 5
4 69 8
4 74 1
4 76 10
4 77 6
4 78 2
4 79 4
4 82 7
4 84 9
4 85 9
4 86 13
4 88 1
4 89 1
4 91 1
4 92 1
4 94 6
4 95 10
4 96 9
4 98 10
4 100 10
5 1 7
5 4 11
5 6 11
5 7 10
5 9 8
5 12 9
5 13 9
5 14 7
5 16 11
5 20 9
5 21 10
5 22 10
5 23 1
5 24 1
5 25 7
5 26 1
5 27 11
5 28 1
5 30 1
5 31 11
5 33 2
5 34 13
5 35 4
5 37 8
5 38 6
5 39 10
5 40 7
5 41 13
5 42 1
5 44 1
5 46 9
5 47 6
5 48 8
5 49 7
5 50 1
5 56 5
5 57 7
5 59 8
5 61 1
5 62 6
5 63 4
5 64 1
5 68 9
5 69 8
5 70 1
5 71 1
5 72 1
5 75 1
5 76 12
5 77 9
5 78 4
5 79 4
5 82 10
5 84 7
5 85 3
5 86 9
5 87 2
5 88 1
5 89 8
5 90 1
5 92 1
5 93 1
5 94 7
5 95 10
5 96 6
5 98 10
5 100 6
6 1 7
6 4 3
6 6 9
6 7 5
6 9 4
6 10 1
6 12 9
6 13 10
6 14 12
6 16 11
6 20 9
6 21 9
6 22 8
6 25 9
6 27 4
6 30 1
6 31 13
6 34 11
6 35 5
6 37 7
6 38 5
6 39 9
6 40 10
6 41 9
6 44 1
6 45 1
6 46 5
6 47 10
6 48 2
6 49 4
6 53 1
6 55 1
6 56 10
6 57 7
6 58 1
6 59 12
6 62 6
6 63 5
6 66 1
6 68 10
6 69 5
6 70 2
6 74 1
6 76 12
6 77 5
6 78 7
6 79 10
6 81 1
6 82 10
6 83 1
6 84 10
6 85 8
6 86 7
6 88 1
6 89 7
6 94 4
6 95 11
6 96 11
6 98 6
6 100 8
7 7 2
7 8 1
7 9 1
7 10 1
7 11 1
7 12 1
7 15 6
7 17 8
7 18 1
7 23 5
7 24 7
7 26 7
7 29 8
7 31 1
7 33 1
7 34 1
7 36 13
7 39 1
7 41 1
7 42 6
7 44 5
7 45 1
7 47 1
7 50 5
7 51 1
7 54 9
7 60 1
7 64 12
7 66 1
7 67 4
7 70 3
7 71 6
7 72 11
7 73 1
7 74 1
7 75 2
7 82 1
7 83 8
7 91 12
7 97 7
7 100 1
8 7 1
8 9 1
8 10 2
8 15 6
8 16 1
8 17 2
8 18 4
8 23 7
8 24 7
8 26 6
8 29 5
8 36 10
8 42 7
8 44 14
8 50 4
8 54 6
8 61 1
8 63 1
8 64 7
8 67 10
8 68 1
8 70 10
8 71 4
8 72 12
8 76 2
8 77 1
8 80 1
8 83 5
8 84 2
8 87 1
8 91 11
8 97 7
9 2 1
9 6 1
9 8 1
9 13 2
9 15 8
9 16 1
9 17 7
9 18 7
9 19 1
9 23 10
9 24 6
9 26 14
9 29 5
9 33 1
9 36 12
9 37 2
9 39 1
9 42 7
9 43 1
9 44 7
9 50 3
9 54 8
9 56 1
9 57 1
9 58 1
9 64 9
9 67 8
9 69 1
9 70 8
9 71 7
9 72 10
9 81 1
9 83 8
9 84 1
9 91 5
9 92 1
9 96 2
9 97 9
9 98 1
9 99 1
10 3 1
10 4 3
10 5 1
10 7 1
10 12 1
10 15 8
10 17 6
10 18 5
10 23 4
10 24 6
10 26 8
10 29 7
10 33 1
10 35 1
10 36 12
10 37 1
10 42 9
10 44 9
10 47 1
10 48 1
10 50 9
10 54 11
10 55 1
10 60 1
10 61 1
10 64 6
10 65 1
10 66 1
10 67 16
10 69 1
10 70 14
10 71 10
10 72 11
10 73 2
10 77 1
10 80 1
10 83 5
10 87 1
10 91 15
10 94 1
10 95 1
10 97 7
11 8 1
11 9 1
11 15 10
11 17 8
11 18 6
11 20 1
11 23 7
11 24 4
11 26 8
11 29 9
11 34 1
11 35 1
11 36 8
11 38 1
11 42 14
11 44 12
11 48 1
11 50 7
11 52 1
11 54 9
11 62 1
11 64 6
11 67 9
11 68 1
11 69 1
11 70 8
11 71 7
11 72 12
11 81 1
11 83 6
11 88 1
11 91 4
11 94 1
11 97 10
11 100 1
12 5 1
12 6 1
12 7 1
12 15 3
12 17 8
12 18 10
12 21 1
12 23 10
12 24 4
12 25 2
12 26 18
12 29 11
12 32 2
12 36 12
12 40 1
12 42 4
12 44 7
12 50 9
12 51 1
12 54 6
12 57 1
12 62 1
12 64 7
12 65 3
12 67 5
12 70 6
12 71 6
12 72 9
12 73 2
12 77 1
12 83 7
12 91 12
12 92 1
12 94 2
12 97 6
13 2 11
13 3 6
13 5 7
13 11 2
13 12 1
13 15 2
13 21 1
13 26 1
13 28 12
13 29 2
13 30 4
13 36 1
13 42 1
13 43 14
13 52 5
13 55 7
13 58 1
13 60 5
13 61 4
13 66 7
13 68 1
13 69 1
13 73 9
13 75 7
13 78 1
13 80 1
13 88 14
13 89 1
13 90 11
13 91 1
13 93 9
13 98 1
13 99 7
14 2 8
14 3 12
14 5 5
14 9 1
14 15 1
14 28 6
14 29 1
14 30 2
14 31 1
14 32 1
14 35 1
14 39 1
14 40 2
14 42 1
14 43 6
14 44 1
14 47 1
14 50 1
14 51 1
14 52 11
14 55 10
14 57 1
14 60 13
14 61 4
14 66 7
14 71 2
14 73 9
14 75 6
14 76 1
14 84 1
14 88 6
14 89 2
14 90 10
14 91 1
14 93 8
14 95 1
14 97 2
14 98 1
14 99 11
15 2 8
15 3 8
15 5 5
15 14 1
15 24 1
15 27 1
15 28 6
15 30 14
15 34 1
15 40 1
15 43 11
15 45 1
15 50 1
15 52 4
15 55 2
15 58 1
15 60 7
15 61 10
15 65 1
15 66 4
15 71 1
15 73 10
15 74 1
15 75 11
15 77 1
15 81 1
15 88 8
15 89 1
15 90 7
15 92 2
15 93 6
15 95 1
15 99 8
16 2 8
16 3 10
16 5 1
16 6 1
16 22 1
16 28 10
16 30 8
16 31 1
16 39 2
16 40 1
16 43 6
16 49 1
16 51 1
16 52 13
16 55 4
16 60 7
16 61 11
16 63 1
16 64 1
16 65 1
16 66 5
16 72 1
16 73 5
16 75 8
16 77 1
16 80 1
16 83 1
16 84 1
16 88 7
16 90 7
16 93 10
16 95 1
16 96 1
16 99 12
16 100 1
17 2 8
17 3 10
17 4 1
17 5 7
17 6 1
17 7 1
17 14 3
17 22 1
17 26 1
17 27 1
17 28 9
17 30 4
17 31 1
17 39 1
17 43 10
17 44 1
17 51 1
17 52 11
17 53 1
17 55 11
17 59 1
17 60 9
17 61 9
17 62 1
17 66 10
17 71 1
17 73 10
17 75 15
17 78 3
17 87 1
17 88 7
17 89 1
17 90 9
17 93 4
17 95 1
17 99 3
18 2 8
18 3 8
18 4 1
18 5 11
18 7 1
18 11 1
18 18 1
18 24 1
18 28 9
18 30 6
18 38 1
18 39 1
18 41 1
18 43 11
18 52 9
18 55 7
18 57 1
18 60 7
18 61 9
18 62 1
18 65 2
18 66 6
18 67 1
18 70 2
18 73 10
18 75 5
18 76 1
18 81 1
18 85 1
18 88 10
18 90 6
18 92 1
18 93 6
18 94 1
18 97 2
18 98 1
18 99 10
18 100 1
19 1 1
19 7 1
19 8 6
19 10 5
19 11 7
19 12 2
19 16 2
19 19 11
19 23 1
19 30 2
19 32 8
19 33 5
19 34 1
19 45 9
19 51 13
19 53 10
19 58 11
19 62 1
19 63 1
19 65 12
19 67 1
19 72 1
19 73 1
19 74 3
19 80 7
19 81 5
19 82 1
19 87 5
19 89 1
19 90 1
19 92 7
19 94 1
20 8 8
20 10 9
20 11 14
20 18 1
20 19 12
20 28 1
20 30 1
20 32 1
20 33 7
20 40 1
20 41 1
20 45 5
20 51 9
20 53 11
20 56 1
20 58 6
20 59 1
20 61 1
20 62 1
20 65 10
20 68 3
20 71 2
20 72 2
20 74 8
20 75 1
20 78 1
20 80 5
20 81 16
20 83 1
20 87 4
20 88 1
20 90 1
20 92 11
21 5 1
21 8 8
21 9 1
21 10 9
21 11 7
21 15 1
21 18 1
21 19 10
21 20 1
21 21 1
21 22 1
21 26 1
21 32 7
21 33 7
21 36 1
21 37 1
21 43 1
21 45 5
21 46 2
21 47 1
21 51 14
21 53 2
21 55 1
21 58 8
21 60 1
21 61 1
21 64 1
21 65 5
21 69 1
21 74 5
21 77 2
21 80 11
21 81 9
21 86 1
21 87 12
21 88 1
21 92 9
21 96 1
21 99 1
22 3 1
22 7 1
22 8 5
22 10 4
22 11 9
22 19 8
22 20 2
22 21 1
22 22 1
22 23 1
22 24 1
22 26 1
22 32 9
22 33 7
22 34 1
22 36 1
22 43 1
22 45 8
22 47 1
22 51 16
22 53 6
22 56 1
22 58 5
22 64 1
22 65 6
22 71 1
22 72 1
22 74 9
22 75 1
22 80 7
22 81 4
22 83 1
22 87 3
22 88 1
22 92 6
22 94 1
22 95 1
22 100 1
23 5 1
23 8 4
23 9 1
23 10 7
23 11 5
23 17 2
23 19 3
23 26 2
23 32 8
23 33 7
23 42 1
23 45 8
23 48 1
23 51 4
23 53 8
23 55 1
23 58 13
23 59 1
23 65 10
23 68 3
23 74 11
23 80 5
23 81 11
23 82 1
23 86 1
23 87 8
23 92 8
23 99 3
24 3 1
24 4 1
24 5 1
24 8 10
24 10 10
24 11 10
24 15 1
24 19 10
24 25 1
24 32 9
24 33 5
24 37 1
24 43 2
24 44 2
24 45 6
24 49 1
24 51 8
24 52 1
24 53 16
24 57 1
24 58 9
24 64 1
24 65 19
24 66 1
24 68 2
24 74 12
24 76 1
24 80 10
24 81 9
24 82 1
24 87 8
24 97 1
24 98 1
25 1 8
25 2 7
25 3 2
25 4 4
25 5 8
25 6 5
25 7 7
25 8 7
25 9 6
25 10 6
25 11 5
25 12 8
25 13 6
25 14 9
25 15 5
25 16 2
25 17 2
25 18 10
25 19 3
25 20 3
25 21 7
25 22 8
25 23 6
25 24 3
25 25 8
25 26 3
25 27 3
25 28 8
25 29 6
25 30 2
25 31 3
25 32 7
25 33 4
25 34 2
25 35 7
25 36 4
25 37 11
25 38 5
25 39 4
25 40 7
25 41 8
25 42 8
25 43 9
25 44 7
25 45 11
25 46 6
25 47 6
25 48 9
25 49 9
25 50 5
25 51 5
25 52 4
25 53 6
25 54 4
25 55 6
25 56 8
25 57 6
25 58 9
25 59 6
25 60 8
25 61 5
25 62 6
25 63 3
25 64 4
25 65 5
25 66 8
25 67 3
25 68 8
25 69 6
25 70 3
25 71 3
25 72 1
25 73 10
25 74 9
25 75 8
25 76 6
25 77 8
25 78 10
25 79 5
25 80 9
25 81 5
25 82 8
25 83 8
25 84 8
25 85 7
25 86 4
25 87 9
25 88 6
25 89 6
25 90 8
25 91 9
25 92 4
25 93 7
25 94 6
25 95 4
25 96 5
25 97 4
25 98 12
25 99 1
25 100 8
26 1 3
26 2 7
26 3 2
26 4 5
26 5 11
26 6 4
26 7 6
26 8 4
26 9 4
26 10 5
26 11 5
26 12 6
26 13 7
26 14 9
26 15 4
26 16 9
26 17 4
26 18 8
26 19 5
26 20 8
26 21 7
26 22 6
26 23 7
26 24 5
26 25 5
26 26 7
26 27 6
26 28 2
26 29 4
26 30 8
26 31 10
26 32 6
26 33 10
26 34 6
26 35 8
26 36 5
26 37 4
26 38 12
26 39 6
26 40 3
26 41 5
26 42 2
26 43 11
26 44 3
26 45 4
26 46 9
26 47 6
26 48 6
26 49 3
26 50 4
26 51 10
26 52 8
26 53 7
26 54 10
26 55 4
26 56 3
26 57 6
26 58 3
26 59 6
26 60 6
26 61 8
26 62 7
26 63 4
26 64 6
26 65 18
26 66 5
26 67 7
26 68 5
26 69 6
26 70 6
26 71 8
26 72 5
26 73 3
26 74 5
26 75 4
26 76 6
26 77 8
26 78 5
26 79 10
26 80 6
26 81 8
26 82 8
26 83 6
26 84 4
26 85 8
26 86 4
26 87 7
26 88 3
26 89 12
26 90 6
26 91 8
26 92 8
26 93 6
26 94 11
26 95 10
26 96 2
26 97 3
26 98 3
26 99 9
26 100 6
27 1 6
27 2 4
27 3 6
27 4 4
27 5 5
27 6 5
27 7 7
27 8 6
27 9 5
27 10 5
27 11 3
27 12 10
27 13 2
27 14 3
27 15 11
27 16 7
27 18 8
27 19 6
27 20 2
27 21 4
27 22 10
27 23 9
27 24 7
27 25 6
27 26 12
27 27 6
27 28 3
27 29 6
27 30 8
27 31 2
27 32 4
27 33 3
27 34 2
27 35 6
27 36 7
27 37 4
27 38 2
27 39 3
27 40 5
27 41 5
27 42 6
27 43 5
27 44 2
27 45 4
27 46 2
27 47 6
27 48 5
27 49 3
27 50 6
27 51 9
27 52 9
27 53 6
27 54 5
27 55 3
27 56 4
27 57 5
27 58 2
27 59 3
27 60 3
27 61 5
27 62 3
27 63 5
27 64 4
27 65 7
27 66 11
27 67 2
27 68 8
27 69 5
27 70 3
27 71 8
27 72 6
27 73 7
27 74 9
27 75 3
27 76 3
27 77 4
27 78 14
27 79 7
27 80 1
27 81 7
27 82 11
27 83 3
27 84 13
27 85 4
27 86 6
27 87 4
27 88 6
27 89 4
27 90 9
27 91 4
27 92 9
27 93 9
27 94 6
27 95 2
27 96 3
27 97 5
27 98 15
27 99 6
27 100 6
28 1 3
28 2 8
28 3 7
28 4 5
28 5 8
28 6 6
28 7 6
28 8 6
28 9 7
28 10 7
28 11 3
28 12 6
28 13 6
28 14 8
28 15 4
28 16 3
28 17 7
28 18 4
28 19 5
28 20 4
28 21 3
28 22 6
28 23 12
28 24 4
28 25 6
28 26 3
28 27 7
28 28 9
28 29 5
28 30 8
28 31 4
28 32 7
28 33 3
28 34 9
28 35 9
28 36 7
28 37 6
28 38 6
28 39 3
28 40 3
28 41 2
28 42 2
28 43 2
28 44 10
28 45 4
28 46 5
28 47 6
28 48 10
28 49 3
28 50 6
28 51 5
28 52 5
28 53 9
28 54 9
28 55 5
28 56 5
28 57 9
28 58 4
28 59 8
28 60 6
28 61 5
28 62 8
28 63 4
28 64 4
28 65 10
28 66 11
28 67 11
28 68 5
28 69 5
28 70 7
28 71 7
28 72 5
28 73 3
28 74 10
28 75 3
28 76 7
28 77 7
28 78 3
28 79 5
28 80 3
28 81 4
28 82 8
28 83 5
28 84 5
28 85 6
28 86 3
28 87 2
28 88 8
28 89 7
28 90 1
28 91 5
28 92 10
28 93 4
28 94 1
28 95 5
28 96 7
28 97 6
28 98 4
28 99 6
28 100 4
29 1 5
29 2 6
29 3 7
29 4 6
29 5 9
29 6 9
29 7 7
29 8 7
29 9 5
29 10 11
29 11 10
29 12 6
29 13 5
29 14 7
29 15 3
29 16 3
29 17 8
29 18 4
29 19 4
29 20 1
29 21 3
29 22 5
29 23 1
29 24 4
29 25 5
29 26 6
29 27 7
29 28 9
29 29 5
29 30 13
29 31 6
29 32 4
29 33 6
29 34 4
29 35 5
29 36 3
29 37 7
29 38 2
29 39 6
29 40 6
29 41 7
29 42 13
29 43 9
29 44 9
29 45 1
29 46 9
29 47 4
29 48 5
29 49 6
29 50 6
29 51 6
29 52 8
29 53 5
29 54 5
29 55 6
29 56 3
29 57 7
29 58 4
29 59 4
29 60 8
29 61 5
29 62 7
29 63 7
29 64 5
29 65 7
29 66 1
29 67 4
29 68 6
29 69 5
29 70 7
29 71 4
29 72 5
29 73 8
29 74 10
29 75 6
29 76 3
29 77 7
29 78 10
29 79 6
29 80 7
29 81 8
29 82 6
29 83 8
29 84 4
29 85 13
29 86 6
29 87 8
29 88 9
29 89 3
29 90 2
29 91 9
29 92 11
29 93 9
29 94 12
29 95 7
29 96 5
29 97 5
29 98 7
29 99 6
29 100 5
30 1 7
30 2 2
30 3 6
30 4 3
30 5 9
30 6 5
30 7 10
30 8 6
30 9 3
30 10 11
30 11 5
30 12 13
30 13 6
30 14 5
30 15 11
30 16 6
30 17 8
30 18 12
30 19 6
30 20 6
30 21 3
30 22 4
30 23 7
30 24 5
30 25 9
30 26 4
30 27 9
30 28 6
30 29 3
30 30 5
30 31 4
30 32 5
30 33 6
30 34 2
30 35 8
30 36 7
30 37 8
30 38 6
30 39 12
30 40 5
30 41 6
30 42 7
30 43 6
30 44 4
30 45 8
30 46 3
30 47 8
30 48 10
30 49 3
30 50 8
30 51 4
30 52 10
30 53 5
30 54 8
30 55 8
30 56 4
30 57 12
30 58 3
30 59 8
30 60 4
30 61 3
30 62 8
30 63 9
30 64 6
30 65 7
30 66 7
30 67 4
30 68 7
30 69 1
30 70 2
30 71 8
30 72 7
30 73 10
30 74 6
30 75 7
30 76 11
30 77 4
30 78 5
30 79 7
30 80 4
30 81 4
30 82 8
30 83 6
30 84 3
30 85 9
30 86 3
30 87 9
30 88 3
30 89 8
30 90 7
30 91 9
30 92 4
30 93 8
30 94 6
30 95 10
30 96 3
30 97 3
30 98 8
30 99 10
30 100 11
31 1 5
31 2 7
31 3 3
31 4 7
31 5 5
31 6 12
31 7 2
31 8 4
31 9 6
31 10 5
31 11 4
31 12 9
31 13 4
31 14 8
31 15 8
31 16 5
31 17 5
31 18 6
31 19 6
31 20 5
31 21 3
31 22 6
31 23 6
31 24 9
31 25 6
31 26 5
31 27 5
31 28 7
31 29 4
31 30 3
31 31 4
31 32 6
31 33 3
31 34 6
31 35 3
31 36 1
31 37 3
31 38 8
31 39 9
31 40 6
31 41 5
31 42 5
31 43 7
31 44 7
31 45 10
31 46 2
31 47 7
31 48 6
31 49 3
31 50 4
31 51 1
31 52 9
31 53 8
31 54 9
31 55 7
31 56 7
31 57 8
31 58 6
31 59 7
31 60 7
31 61 8
31 62 6
31 63 3
31 64 8
31 65 12
31 66 10
31 67 8
31 68 5
31 69 8
31 70 3
31 71 5
31 72 6
31 73 6
31 74 6
31 75 10
31 76 6
31 77 6
31 78 8
31 79 2
31 80 2
31 81 5
31 82 8
31 83 7
31 84 8
31 85 6
31 86 10
31 87 6
31 88 8
31 89 1
31 90 6
31 91 11
31 92 7
31 93 9
31 94 8
31 95 3
31 96 8
31 97 3
31 98 3
31 99 10
31 100 7
32 1 10
32 2 4
32 3 6
32 4 4
32 5 4
32 6 3
32 7 9
32 8 4
32 9 8
32 10 9
32 11 7
32 12 7
32 13 9
32 14 10
32 15 8
32 16 4
32 17 3
32 18 10
32 19 3
32 20 4
32 21 8
32 22 6
32 23 9
32 24 9
32 25 2
32 26 8
32 27 5
32 28 8
32 29 9
32 30 3
32 31 4
32 32 1
32 33 2
32 34 6
32 35 7
32 36 3
32 37 9
32 38 7
32 39 5
32 40 3
32 41 4
32 42 6
32 43 10
32 44 9
32 45 7
32 46 3
32 47 9
32 48 4
32 49 10
32 50 4
32 51 3
32 52 3
32 53 2
32 54 12
32 55 5
32 56 2
32 57 5
32 58 2
32 59 6
32 60 3
32 61 4
32 62 3
32 63 7
32 64 5
32 65 10
32 66 9
32 67 2
32 68 4
32 69 4
32 70 6
32 71 10
32 72 6
32 73 5
32 74 5
32 75 8
32 76 9
32 77 3
32 78 3
32 79 3
32 80 6
32 81 5
32 82 9
32 83 6
32 84 7
32 85 11
32 86 9
32 87 4
32 88 8
32 89 11
32 90 7
32 91 4
32 92 7
32 93 8
32 94 7
32 95 9
32 96 7
32 97 12
32 98 5
32 99 8
32 100 6
33 1 7
33 2 2
33 3 4
33 4 6
33 5 6
33 6 3
33 7 5
33 8 9
33 9 6
33 10 9
33 11 4
33 12 6
33 13 6
33 14 6
33 15 5
33 16 7
33 17 3
33 18 3
33 19 5
33 20 4
33 21 8
33 22 7
33 23 3
33 24 11
33 25 7
33 26 1
33 27 4
33 28 8
33 29 4
33 30 4
33 31 7
33 32 6
33 33 9
33 34 8
33 35 4
33 36 4
33 37 9
33 38 9
33 39 6
33 40 4
33 41 4
33 42 9
33 43 7
33 44 2
33 45 6
33 46 5
33 47 7
33 48 15
33 49 5
33 50 5
33 51 6
33 52 6
33 53 4
33 54 7
33 55 8
33 56 9
33 57 12
33 58 6
33 59 6
33 60 5
33 61 8
33 62 8
33 63 5
33 64 7
33 65 9
33 66 8
33 67 5
33 68 11
33 69 4
33 70 7
33 71 3
33 72 6
33 73 4
33 74 3
33 75 5
33 76 3
33 77 5
33 78 5
33 79 6
33 80 7
33 81 9
33 82 9
33 83 5
33 84 1
33 85 9
33 86 7
33 87 4
33 88 6
33 89 5
33 90 11
33 91 6
33 92 3
33 93 2
33 94 7
33 95 7
33 96 7
33 97 11
33 98 9
33 99 4
33 100 4
34 1 4
34 2 3
34 3 4
34 4 6
34 5 5
34 6 4
34 7 5
34 8 9
34 9 7
34 10 4
34 11 5
34 12 8
34 13 5
34 14 6
34 15 8
34 16 8
34 17 3
34 18 2
34 19 7
34 20 7
34 21 7
34 22 2
34 23 8
34 24 7
34 25 4
34 26 8
34 27 6
34 28 6
34 29 13
34 30 10
34 31 6
34 32 6
34 33 8
34 34 2
34 35 6
34 36 7
34 37 1
34 38 4
34 39 2
34 40 10
34 41 6
34 42 10
34 43 4
34 44 7
34 45 7
34 46 3
34 47 3
34 48 8
34 49 6
34 50 6
34 51 6
34 52 3
34 53 5
34 54 4
34 55 4
34 56 7
34 57 7
34 58 7
34 59 5
34 60 2
34 61 6
34 62 10
34 63 8
34 64 10
34 65 10
34 66 6
34 67 7
34 68 7
34 69 4
34 70 7
34 71 5
34 72 6
34 73 6
34 74 7
34 75 4
34 76 4
34 77 9
34 78 9
34 79 9
34 80 10
34 81 7
34 82 3
34 83 8
34 84 8
34 85 6
34 86 7
34 87 6
34 88 8
34 89 5
34 90 3
34 91 3
34 92 3
34 93 6
34 94 2
34 95 1
34 96 7
34 97 7
34 98 9
34 99 7
34 100 10
35 13 1
35 22 1
35 57 1
35 92 1
35 99 1
36 4 1
36 53 1
36 57 1
36 63 1
36 68 1
37 5 1
37 20 1
37 26 1
37 39 1
37 58 1
37 59 1
37 61 1
37 75 1
38 33 1
38 34 1
38 46 1
38 68 1
38 78 1
38 83 1
38 84 1
38 93 1
39 14 1
39 41 1
39 71 1
39 84 1
39 87 1
39 93 1
40 6 1
40 35 1
40 51 1
40 52 1
40 58 1
40 61 2
40 90 1
40 94 1
40 98 1
41 5 1
41 11 1
41 29 1
41 37 1
41 43 1
41 56 1
41 65 1
41 87 1
41 99 1
42 7 1
42 23 1
42 31 1
42 37 1
42 43 1
42 46 1
42 54 1
42 76 1
43 1 1
43 36 1
43 59 1
43 77 1
43 97 1
43 99 1
44 15 1
44 88 1
44 93 1
44 94 2
44 99 1
45 10 1
45 33 1
45 42 1
45 52 1
45 54 1
45 66 1
46 13 2
46 20 1
46 34 1
46 45 1
46 46 1
46 48 1
46 62 1
46 63 1
46 72 1
46 97 1
47 12 2
47 18 1
47 26 2
47 63 1
47 70 1
47 77 1
48 17 1
48 36 1
48 48 1
48 81 2
49 21 1
49 24 1
49 41 1
49 54 1
49 63 1
49 68 1
49 70 1
49 79 1
49 80 1
49 98 2
50 11 1
50 31 1
50 32 1
50 37 1
50 40 1
50 49 2
50 50 1
50 98 1
51 1 1
51 4 1
51 7 1
51 35 1
51 60 1
51 65 2
51 71 1
51 78 1
51 88 1
52 14 2
52 17 1
52 27 1
52 36 1
52 46 1
52 62 1
52 67 1
52 71 1
52 73 1
52 78 2
53 4 1
53 8 2
53 19 1
53 26 1
53 32 1
53 68 1
53 88 1
53 92 2
54 2 1
54 9 1
54 29 1
54 55 1
54 67 1
54 75 1
54 79 1
54 80 1
54 83 1
54 95 1
55 19 1
55 54 1
55 63 1
55 81 1
55 93 1
56 10 1
56 24 1
56 26 1
56 32 1
56 54 1
56 64 1
56 70 1
56 86 1
56 88 1
56 93 1
57 11 1
57 13 1
57 14 1
57 81 1
57 98 1
58 23 1
58 26 1
58 37 1
58 63 1
58 72 1
58 88 1
59 20 1
59 29 1
59 43 2
59 44 1
59 52 1
59 59 1
59 79 1
59 94 1
60 23 1
61 48 1
61 54 1
61 74 1
61 94 1
62 9 1
62 16 1
62 31 2
62 45 1
62 59 1
62 66 1
62 78 1
62 90 1
62 92 1
62 97 1
63 1 1
63 7 1
63 23 1
63 35 1
63 41 1
63 53 1
63 55 1
63 62 1
63 68 1
63 76 1
63 88 1
63 89 1
63 90 2
64 17 1
64 38 1
64 40 1
64 41 1
64 44 1
64 59 1
64 60 1
64 61 1
65 1 1
65 34 1
65 59 2
65 100 1
66 8 2
66 17 1
66 27 1
66 45 1
66 49 2
66 61 1
66 67 1
66 69 1
66 79 1
67 39 1
67 53 1
67 57 1
67 63 1
67 81 1
67 86 1
68 1 1
68 3 4
68 4 1
68 6 1
68 7 1
68 10 1
68 11 1
68 14 1
68 15 8
68 17 5
68 18 5
68 19 1
68 23 12
68 24 2
68 26 5
68 28 2
68 29 8
68 30 1
68 32 1
68 36 4
68 42 5
68 44 6
68 46 1
68 47 1
68 48 1
68 49 1
68 50 6
68 53 1
68 54 12
68 58 1
68 60 1
68 62 1
68 64 2
68 66 2
68 67 11
68 68 1
68 70 9
68 71 6
68 72 6
68 73 2
68 75 2
68 76 2
68 77 1
68 78 1
68 80 1
68 83 4
68 84 1
68 89 1
68 90 1
68 91 3
68 92 1
68 93 4
68 97 4
68 99 1
69 1 1
69 5 1
69 6 1
69 8 1
69 9 1
69 13 1
69 14 1
69 15 4
69 17 4
69 18 6
69 19 1
69 21 2
69 23 9
69 24 6
69 26 1
69 27 3
69 28 1
69 29 6
69 30 1
69 31 1
69 32 2
69 36 1
69 37 1
69 38 1
69 42 10
69 43 2
69 44 9
69 48 1
69 49 2
69 50 5
69 51 1
69 52 1
69 53 1
69 54 11
69 56 1
69 60 1
69 64 9
69 65 1
69 67 8
69 69 1
69 70 8
69 71 8
69 72 5
69 75 1
69 80 2
69 81 3
69 83 11
69 86 2
69 87 1
69 89 1
69 90 1
69 91 4
69 92 2
69 93 1
69 97 7
69 98 1
69 99 2
69 100 1
70 1 1
70 2 2
70 4 2
70 5 1
70 6 2
70 8 1
70 9 2
70 12 2
70 13 1
70 15 9
70 17 8
70 18 5
70 20 1
70 22 1
70 23 5
70 24 11
70 26 5
70 29 8
70 36 1
70 37 2
70 38 2
70 42 2
70 44 3
70 49 1
70 50 9
70 52 1
70 54 8
70 57 1
70 59 1
70 60 3
70 64 8
70 67 9
70 69 1
70 70 9
70 71 6
70 72 13
70 77 2
70 78 1
70 81 1
70 83 7
70 84 1
70 89 1
70 91 4
70 95 1
70 96 1
70 97 6
70 98 2
70 99 1
71 1 2
71 5 1
71 6 1
71 7 1
71 10 1
71 14 1
71 15 5
71 17 4
71 18 9
71 23 9
71 24 4
71 26 9
71 27 1
71 28 2
71 29 8
71 30 1
71 32 1
71 33 1
71 36 9
71 37 1
71 40 1
71 41 1
71 42 4
71 43 1
71 44 5
71 46 1
71 47 1
71 50 8
71 52 3
71 53 1
71 54 9
71 55 1
71 56 1
71 57 1
71 58 1
71 59 1
71 60 1
71 63 1
71 64 6
71 66 2
71 67 4
71 70 9
71 71 7
71 72 6
71 76 1
71 78 2
71 81 2
71 83 6
71 88 2
71 89 1
71 91 6
71 95 1
71 97 10
71 100 2
72 5 1
72 7 2
72 8 1
72 9 3
72 14 2
72 15 7
72 17 6
72 18 2
72 19 1
72 22 1
72 23 6
72 24 4
72 25 1
72 26 6
72 28 3
72 29 9
72 32 1
72 33 2
72 34 1
72 35 2
72 36 5
72 38 2
72 39 2
72 42 7
72 44 8
72 47 1
72 48 1
72 49 1
72 50 4
72 52 1
72 54 6
72 55 1
72 57 1
72 58 1
72 60 2
72 64 8
72 67 4
72 70 7
72 71 4
72 72 6
72 74 1
72 75 1
72 81 1
72 82 1
72 83 5
72 85 3
72 88 1
72 90 1
72 91 6
72 95 1
72 97 6
72 99 1
72 100 1
73 2 1
73 3 1
73 5 1
73 6 1
73 7 2
73 8 8
73 10 6
73 11 2
73 12 2
73 19 4
73 24 1
73 27 1
73 29 1
73 30 1
73 31 1
73 32 5
73 33 2
73 37 1
73 41 1
73 45 11
73 46 1
73 47 1
73 48 1
73 49 1
73 50 2
73 51 9
73 53 9
73 58 8
73 59 3
73 60 1
73 63 2
73 65 3
73 67 2
73 73 1
73 74 10
73 76 1
73 80 7
73 81 8
73 87 6
73 88 2
73 92 6
73 94 2
73 95 1
73 98 1
73 99 1
74 6 2
74 8 5
74 10 7
74 11 5
74 14 1
74 19 8
74 23 2
74 24 1
74 26 1
74 28 1
74 30 1
74 32 6
74 33 2
74 35 1
74 37 1
74 38 1
74 39 1
74 40 3
74 41 1
74 43 1
74 45 6
74 49 1
74 50 1
74 51 9
74 53 6
74 54 2
74 58 9
74 63 1
74 65 5
74 66 1
74 72 1
74 73 1
74 74 7
74 77 2
74 80 8
74 81 2
74 83 2
74 85 1
74 87 6
74 88 1
74 90 1
74 91 1
74 92 4
74 93 1
74 94 1
74 95 1
74 96 1
74 99 2
74 100 1
75 6 1
75 7 2
75 8 1
75 9 1
75 11 1
75 15 13
75 17 5
75 18 5
75 19 1
75 20 2
75 23 8
75 24 12
75 25 1
75 26 10
75 27 1
75 29 7
75 33 1
75 36 7
75 39 1
75 40 1
75 42 6
75 44 4
75 45 2
75 47 1
75 48 2
75 50 5
75 52 1
75 54 6
75 56 1
75 59 1
75 63 1
75 64 3
75 66 1
75 67 7
75 68 1
75 70 4
75 71 6
75 72 3
75 73 1
75 76 1
75 77 1
75 80 1
75 81 1
75 82 2
75 83 6
75 87 1
75 88 1
75 89 1
75 90 1
75 91 2
75 92 1
75 94 1
75 95 2
75 97 5
75 100 1
76 1 1
76 2 2
76 3 8
76 4 1
76 5 10
76 8 1
76 16 1
76 17 1
76 18 1
76 27 1
76 28 5
76 30 5
76 35 1
76 36 1
76 37 3
76 38 1
76 42 3
76 43 9
76 45 1
76 48 2
76 49 1
76 52 4
76 53 1
76 54 1
76 55 8
76 59 2
76 60 5
76 61 8
76 63 1
76 64 1
76 65 1
76 66 8
76 67 1
76 68 1
76 71 1
76 72 1
76 73 7
76 74 1
76 75 5
76 79 1
76 82 1
76 85 1
76 88 10
76 90 3
76 93 4
76 97 1
76 98 1
76 99 6
77 3 1
77 5 1
77 6 2
77 8 2
77 9 1
77 11 2
77 13 2
77 14 2
77 15 5
77 17 10
77 18 4
77 23 6
77 24 7
77 26 7
77 28 2
77 29 5
77 31 1
77 33 1
77 34 3
77 35 2
77 36 4
77 37 1
77 41 1
77 42 18
77 43 2
77 44 5
77 46 1
77 47 1
77 50 5
77 54 4
77 59 2
77 61 1
77 64 7
77 65 1
77 66 1
77 67 6
77 68 1
77 70 3
77 71 5
77 72 8
77 75 2
77 77 1
77 78 1
77 79 1
77 81 1
77 83 10
77 84 1
77 87 2
77 89 2
77 91 8
77 92 3
77 93 2
77 97 6
78 1 1
78 3 1
78 6 3
78 7 1
78 10 1
78 11 2
78 13 1
78 15 6
78 17 5
78 18 4
78 21 1
78 23 7
78 24 4
78 25 1
78 26 8
78 27 1
78 29 5
78 30 1
78 31 2
78 33 1
78 36 10
78 39 1
78 40 1
78 42 2
78 44 4
78 45 1
78 47 1
78 48 1
78 49 3
78 50 4
78 51 1
78 54 6
78 56 1
78 58 1
78 59 1
78 61 1
78 62 1
78 64 4
78 67 7
78 69 3
78 70 9
78 71 9
78 72 2
78 73 1
78 76 1
78 79 2
78 83 6
78 90 2
78 91 3
78 92 2
78 93 1
78 94 1
78 96 1
78 97 10
78 99 3
79 3 1
79 4 1
79 7 2
79 8 10
79 10 6
79 11 5
79 19 4
79 23 1
79 27 1
79 29 1
79 32 4
79 33 5
79 34 1
79 36 1
79 37 1
79 40 2
79 42 1
79 45 6
79 47 1
79 51 7
79 53 6
79 55 1
79 56 1
79 58 6
79 59 1
79 61 1
79 62 1
79 64 1
79 65 14
79 68 2
79 69 1
79 70 1
79 72 1
79 73 1
79 74 4
79 78 2
79 80 11
79 81 3
79 82 1
79 83 4
79 85 1
79 87 3
79 88 1
79 89 2
79 91 2
79 92 6
79 96 1
79 97 2
79 100 1
80 5 1
80 6 1
80 10 2
80 13 2
80 14 2
80 15 5
80 16 1
80 17 3
80 18 2
80 20 1
80 22 1
80 23 3
80 24 3
80 25 1
80 26 1
80 27 2
80 29 9
80 32 1
80 36 4
80 37 2
80 38 2
80 42 2
80 43 2
80 44 3
80 49 1
80 50 8
80 53 1
80 54 3
80 55 1
80 57 1
80 58 1
80 59 1
80 60 1
80 61 1
80 62 1
80 64 5
80 67 5
80 70 3
80 71 9
80 72 2
80 73 1
80 74 2
80 75 1
80 77 1
80 80 1
80 81 2
80 83 6
80 86 1
80 91 3
80 92 1
80 93 1
80 94 1
80 96 5
80 97 11
80 99 1
80 100 2
81 1 6
81 2 2
81 4 4
81 6 6
81 7 6
81 9 2
81 10 1
81 12 6
81 13 3
81 14 5
81 16 5
81 20 6
81 21 3
81 23 2
81 24 1
81 25 5
81 27 6
81 28 1
81 31 5
81 32 1
81 33 1
81 34 6
81 35 9
81 37 6
81 38 9
81 39 5
81 40 8
81 41 8
81 46 1
81 47 1
81 48 7
81 49 6
81 51 1
81 56 7
81 57 7
81 59 8
81 62 5
81 63 10
81 65 1
81 68 8
81 69 7
81 73 2
81 75 1
81 76 2
81 77 5
81 78 5
81 79 5
81 82 4
81 83 1
81 84 11
81 85 6
81 86 8
81 89 4
81 92 2
81 94 4
81 95 5
81 96 4
81 98 3
81 99 2
81 100 6
82 1 1
82 3 1
82 5 1
82 6 1
82 7 2
82 8 9
82 10 3
82 11 16
82 14 1
82 17 2
82 19 6
82 20 1
82 27 1
82 28 1
82 29 1
82 32 12
82 33 3
82 37 1
82 39 2
82 43 1
82 44 1
82 45 18
82 46 1
82 47 1
82 48 1
82 51 7
82 53 15
82 54 2
82 56 3
82 58 4
82 61 1
82 63 1
82 64 1
82 65 5
82 66 2
82 67 2
82 70 1
82 72 3
82 73 1
82 74 7
82 75 2
82 78 1
82 79 2
82 80 9
82 81 9
82 83 1
82 84 1
82 87 5
82 88 1
82 89 1
82 92 14
82 94 3
82 99 1
83 8 13
83 10 6
83 11 8
83 13 1
83 14 1
83 18 1
83 19 2
83 22 1
83 25 1
83 26 1
83 27 1
83 29 2
83 32 11
83 33 5
83 35 1
83 39 1
83 40 1
83 43 1
83 45 9
83 48 2
83 50 1
83 51 9
83 53 4
83 54 1
83 55 2
83 58 6
83 59 1
83 60 1
83 63 2
83 65 7
83 67 1
83 71 1
83 73 1
83 74 8
83 75 1
83 78 1
83 79 1
83 80 10
83 81 9
83 83 1
83 84 1
83 87 8
83 90 1
83 91 1
83 92 14
83 95 2
83 99 2
84 4 1
84 7 2
84 8 12
84 9 1
84 10 5
84 11 10
84 14 1
84 15 1
84 19 9
84 20 1
84 28 1
84 32 8
84 33 2
84 36 2
84 40 1
84 42 1
84 43 1
84 45 7
84 48 1
84 49 1
84 51 8
84 52 2
84 53 7
84 58 11
84 59 2
84 64 1
84 65 8
84 66 1
84 67 1
84 68 1
84 69 1
84 70 1
84 72 2
84 74 5
84 75 2
84 76 2
84 78 1
84 79 1
84 80 4
84 81 4
84 84 1
84 87 3
84 88 1
84 89 2
84 90 1
84 92 9
84 97 1
84 98 2
84 99 1
84 100 3
85 2 10
85 3 9
85 5 8
85 7 2
85 9 1
85 11 1
85 13 1
85 16 1
85 17 1
85 21 1
85 23 1
85 24 1
85 28 9
85 30 4
85 32 1
85 34 2
85 35 1
85 36 1
85 43 7
85 46 1
85 48 5
85 49 1
85 51 3
85 52 6
85 53 1
85 54 1
85 55 4
85 59 1
85 60 3
85 61 10
85 62 1
85 66 10
85 70 2
85 71 1
85 73 11
85 75 4
85 78 1
85 79 2
85 81 1
85 87 1
85 88 8
85 89 1
85 90 5
85 92 1
85 93 4
85 97 1
85 99 2
85 100 1
86 1 2
86 3 2
86 7 1
86 8 2
86 9 1
86 10 3
86 11 7
86 15 1
86 17 1
86 19 2
86 21 2
86 23 1
86 25 2
86 26 1
86 31 1
86 32 6
86 33 2
86 39 1
86 41 1
86 45 9
86 50 3
86 51 3
86 52 2
86 53 14
86 55 1
86 57 1
86 58 5
86 61 2
86 63 1
86 65 6
86 70 1
86 74 4
86 77 1
86 78 2
86 80 7
86 81 13
86 82 1
86 87 10
86 89 1
86 91 2
86 92 3
86 96 3
86 97 1
86 98 1
86 99 2
86 100 3
87 8 2
87 11 2
87 12 1
87 13 1
87 15 6
87 16 2
87 17 7
87 18 6
87 23 14
87 24 7
87 25 1
87 26 7
87 27 1
87 29 13
87 30 1
87 31 1
87 35 1
87 36 7
87 39 2
87 40 1
87 42 10
87 43 1
87 44 8
87 50 7
87 51 1
87 52 1
87 54 8
87 55 1
87 57 1
87 58 1
87 59 1
87 60 1
87 61 1
87 62 1
87 63 1
87 64 3
87 65 2
87 67 13
87 70 9
87 71 2
87 72 6
87 73 1
87 75 1
87 77 2
87 80 1
87 81 1
87 83 4
87 84 2
87 85 1
87 87 1
87 89 1
87 91 4
87 93 1
87 94 1
87 95 1
87 97 3
87 99 5
87 100 1
88 1 10
88 3 1
88 4 8
88 6 4
88 7 9
88 9 4
88 11 1
88 12 4
88 13 5
88 14 6
88 15 1
88 16 5
88 17 1
88 18 1
88 20 2
88 21 6
88 22 1
88 23 2
88 24 1
88 25 7
88 27 9
88 28 2
88 29 1
88 31 2
88 32 1
88 33 1
88 34 3
88 35 7
88 37 8
88 38 4
88 39 6
88 40 7
88 41 7
88 42 1
88 43 1
88 44 2
88 46 12
88 47 5
88 48 2
88 49 7
88 50 1
88 52 1
88 54 2
88 56 6
88 57 7
88 58 1
88 59 5
88 60 1
88 62 6
88 63 8
88 65 1
88 67 1
88 68 2
88 69 6
88 70 1
88 72 3
88 73 2
88 74 1
88 76 4
88 77 5
88 78 5
88 79 7
88 81 1
88 82 4
88 83 1
88 84 7
88 85 4
88 87 1
88 88 1
88 89 12
88 90 1
88 92 1
88 94 3
88 95 9
88 96 1
88 98 9
88 99 5
88 100 4
89 8 3
89 10 2
89 13 1
89 15 7
89 16 4
89 17 3
89 18 8
89 19 1
89 22 1
89 23 8
89 24 12
89 26 4
89 29 4
89 34 1
89 35 1
89 36 7
89 37 2
89 41 1
89 42 4
89 43 2
89 44 2
89 45 1
89 46 4
89 50 5
89 51 1
89 52 1
89 54 1
89 58 1
89 59 1
89 61 1
89 62 1
89 64 5
89 65 1
89 67 7
89 68 1
89 69 2
89 70 1
89 71 5
89 72 3
89 75 2
89 78 1
89 80 2
89 81 2
89 83 5
89 84 2
89 86 1
89 88 3
89 89 4
89 90 1
89 91 4
89 92 1
89 93 2
89 94 2
89 97 6
89 99 1
89 100 1
90 4 1
90 6 1
90 7 1
90 9 1
90 11 2
90 13 3
90 14 1
90 15 7
90 17 7
90 18 5
90 19 3
90 20 1
90 21 1
90 23 8
90 24 4
90 25 1
90 26 4
90 27 1
90 29 11
90 30 2
90 31 2
90 32 3
90 34 1
90 36 5
90 37 1
90 40 2
90 41 3
90 42 5
90 43 1
90 44 7
90 45 2
90 48 1
90 50 7
90 51 2
90 54 9
90 56 1
90 58 1
90 62 1
90 64 4
90 67 5
90 70 8
90 71 4
90 72 10
90 73 2
90 74 2
90 75 1
90 76 1
90 83 6
90 87 1
90 90 1
90 91 8
90 97 6
90 98 2
91 2 1
91 3 1
91 6 1
91 8 8
91 10 7
91 11 5
91 13 1
91 19 4
91 23 1
91 26 1
91 32 4
91 33 6
91 38 1
91 39 1
91 40 1
91 43 1
91 45 7
91 46 1
91 48 1
91 49 1
91 50 1
91 51 4
91 53 11
91 57 1
91 58 7
91 59 1
91 60 1
91 61 1
91 64 2
91 65 8
91 66 1
91 67 1
91 68 1
91 69 1
91 70 1
91 71 1
91 73 1
91 74 10
91 76 1
91 78 1
91 80 9
91 81 9
91 85 1
91 87 5
91 90 1
91 91 1
91 92 6
91 93 1
91 94 1
91 97 1
91 100 2
92 1 1
92 2 1
92 4 1
92 5 3
92 6 1
92 14 1
92 16 1
92 17 6
92 18 7
92 20 1
92 23 9
92 24 6
92 26 2
92 29 7
92 34 1
92 36 9
92 37 1
92 42 4
92 44 11
92 47 1
92 48 1
92 50 8
92 54 4
92 55 1
92 56 1
92 60 2
92 63 2
92 64 6
92 67 6
92 68 1
92 69 1
92 70 9
92 71 7
92 72 5
92 76 1
92 80 1
92 83 5
92 85 1
92 88 3
92 89 1
92 91 4
92 97 7
93 1 4
93 2 1
93 4 10
93 6 4
93 7 2
93 9 6
93 11 1
93 12 9
93 13 6
93 14 4
93 15 1
93 16 3
93 20 9
93 21 4
93 22 11
93 23 1
93 24 1
93 25 10
93 27 9
93 28 1
93 30 1
93 31 12
93 32 2
93 33 2
93 34 7
93 35 6
93 37 11
93 38 6
93 39 6
93 40 7
93 41 12
93 46 5
93 47 5
93 48 8
93 49 7
93 50 2
93 55 1
93 56 4
93 57 7
93 58 3
93 59 8
93 62 6
93 63 9
93 66 1
93 68 3
93 69 10
93 70 1
93 71 1
93 73 1
93 74 3
93 75 2
93 76 6
93 77 4
93 78 6
93 79 6
93 82 5
93 83 1
93 84 10
93 85 6
93 86 3
93 89 9
93 90 2
93 91 1
93 93 2
93 94 7
93 95 6
93 96 4
93 97 1
93 98 6
93 100 4
94 2 1
94 4 1
94 6 1
94 12 3
94 13 2
94 14 1
94 15 8
94 17 2
94 18 5
94 19 1
94 23 5
94 24 10
94 26 1
94 27 1
94 28 1
94 29 2
94 30 1
94 33 1
94 35 1
94 36 9
94 37 1
94 38 1
94 42 3
94 43 3
94 44 10
94 45 1
94 46 1
94 48 2
94 50 7
94 54 2
94 57 2
94 61 1
94 62 1
94 64 3
94 65 2
94 67 3
94 68 1
94 69 1
94 70 4
94 71 7
94 72 9
94 74 1
94 75 2
94 76 1
94 79 1
94 83 10
94 84 2
94 86 1
94 90 2
94 91 6
94 94 1
94 96 1
94 97 5
94 98 1
95 3 1
95 5 1
95 6 1
95 7 2
95 9 1
95 10 1
95 11 1
95 15 5
95 16 2
95 17 9
95 18 5
95 19 1
95 20 1
95 23 5
95 24 3
95 26 9
95 29 3
95 31 1
95 33 2
95 35 1
95 36 6
95 38 1
95 39 2
95 41 1
95 42 5
95 44 7
95 48 2
95 50 4
95 51 2
95 54 7
95 55 1
95 56 1
95 57 3
95 60 1
95 62 1
95 64 10
95 65 2
95 66 1
95 67 3
95 70 8
95 71 3
95 72 5
95 79 1
95 80 1
95 82 2
95 83 2
95 87 1
95 89 1
95 90 1
95 91 8
95 93 1
95 94 1
95 95 2
95 97 7
95 98 1
95 99 1
95 100 2
96 1 3
96 3 1
96 7 1
96 9 2
96 10 1
96 15 10
96 17 11
96 18 11
96 22 1
96 23 5
96 24 8
96 26 5
96 27 2
96 29 9
96 31 1
96 32 1
96 34 1
96 35 1
96 36 5
96 38 1
96 42 10
96 44 4
96 47 2
96 50 5
96 52 2
96 54 7
96 55 2
96 56 2
96 64 5
96 65 1
96 66 1
96 67 10
96 68 2
96 69 1
96 70 7
96 71 13
96 72 6
96 73 1
96 74 1
96 76 1
96 77 1
96 78 2
96 80 1
96 81 1
96 82 1
96 83 7
96 84 1
96 86 2
96 88 1
96 91 5
96 92 2
96 93 2
96 96 1
96 97 11
96 98 1
96 99 1
96 100 3
97 1 3
97 2 1
97 4 1
97 6 4
97 7 9
97 9 2
97 10 1
97 12 12
97 13 6
97 14 8
97 16 5
97 17 2
97 20 5
97 21 11
97 22 5
97 25 8
97 27 2
97 28 1
97 29 1
97 30 2
97 31 3
97 34 1
97 35 6
97 37 3
97 38 2
97 39 5
97 40 5
97 41 6
97 42 1
97 43 1
97 46 3
97 47 7
97 48 7
97 49 1
97 54 1
97 56 5
97 57 5
97 59 3
97 60 1
97 62 5
97 63 8
97 65 1
97 68 5
97 69 5
97 70 1
97 71 1
97 74 1
97 75 1
97 76 6
97 77 3
97 78 6
97 79 5
97 80 3
97 81 1
97 82 2
97 84 6
97 85 2
97 86 2
97 87 1
97 88 1
97 89 7
97 91 1
97 92 1
97 94 5
97 95 4
97 96 4
97 98 3
97 99 1
97 100 3
98 1 1
98 8 1
98 10 1
98 11 1
98 12 2
98 13 1
98 15 6
98 17 10
98 18 6
98 19 1
98 20 1
98 23 3
98 24 7
98 25 1
98 26 9
98 29 3
98 36 2
98 37 1
98 38 1
98 39 1
98 40 1
98 42 8
98 43 1
98 44 8
98 47 1
98 48 3
98 49 1
98 50 3
98 54 8
98 55 1
98 56 1
98 58 1
98 60 1
98 62 1
98 63 2
98 64 6
98 65 1
98 67 4
98 70 7
98 71 4
98 72 3
98 73 2
98 74 3
98 75 1
98 80 4
98 82 1
98 83 5
98 84 1
98 86 1
98 87 1
98 88 2
98 91 6
98 92 1
98 93 2
98 94 2
98 97 8
99 1 4
99 4 4
99 6 9
99 7 7
99 9 4
99 12 7
99 13 14
99 14 7
99 16 10
99 17 1
99 18 2
99 19 2
99 20 7
99 21 5
99 22 5
99 23 3
99 24 1
99 25 2
99 27 1
99 28 1
99 29 2
99 31 4
99 32 1
99 33 1
99 34 6
99 35 7
99 37 4
99 38 3
99 39 5
99 40 7
99 41 13
99 43 1
99 46 4
99 47 12
99 48 8
99 49 6
99 56 6
99 57 4
99 58 1
99 59 9
99 62 4
99 63 3
99 65 1
99 68 8
99 69 9
99 72 1
99 75 1
99 76 10
99 77 2
99 78 2
99 79 11
99 82 9
99 84 4
99 85 3
99 86 7
99 88 1
99 89 9
99 91 1
99 93 1
99 94 3
99 95 6
99 96 10
99 97 1
99 98 4
99 99 2
99 100 6
100 1 1
100 7 1
100 8 2
100 10 4
100 11 7
100 12 2
100 13 1
100 15 1
100 16 1
100 19 7
100 20 1
100 22 2
100 25 1
100 28 1
100 29 1
100 31 1
100 32 5
100 33 13
100 34 2
100 35 1
100 37 2
100 38 1
100 39 1
100 40 1
100 42 1
100 43 1
100 44 1
100 45 5
100 46 1
100 47 1
100 48 1
100 50 2
100 51 1
100 53 6
100 54 2
100 57 1
100 58 8
100 64 1
100 65 10
100 66 1
100 74 5
100 75 1
100 76 2
100 79 1
100 80 7
100 81 5
100 82 1
100 83 1
100 86 5
100 87 6
100 88 1
100 90 2
100 91 1
100 92 2
100 95 1
100 97 1
100 98 1
100 99 2
100 100 1
101 7 1
101 8 1
101 9 1
101 12 1
101 13 1
101 15 7
101 17 5
101 18 8
101 21 2
101 23 8
101 24 13
101 25 1
101 26 3
101 29 8
101 30 2
101 34 1
101 35 3
101 36 9
101 38 2
101 39 1
101 40 1
101 41 2
101 42 5
101 44 16
101 46 1
101 48 1
101 49 1
101 50 6
101 51 1
101 53 1
101 54 5
101 55 1
101 56 1
101 58 1
101 61 1
101 64 3
101 65 1
101 67 3
101 68 1
101 70 6
101 71 4
101 72 6
101 73 2
101 74 1
101 75 1
101 77 1
101 78 2
101 81 2
101 83 2
101 86 1
101 87 1
101 91 4
101 92 2
101 94 2
101 95 1
101 97 6
101 99 1
101 100 1
102 1 1
102 3 2
102 4 1
102 5 1
102 7 1
102 10 1
102 15 7
102 17 5
102 18 5
102 22 1
102 23 10
102 24 9
102 26 4
102 29 4
102 32 1
102 33 1
102 35 1
102 36 1
102 38 1
102 41 2
102 42 8
102 43 1
102 44 5
102 45 1
102 46 1
102 50 7
102 54 4
102 57 1
102 58 1
102 60 1
102 61 1
102 63 1
102 64 5
102 67 11
102 70 2
102 71 5
102 72 3
102 73 1
102 83 1
102 84 1
102 85 2
102 87 1
102 90 2
102 91 1
102 95 2
102 97 4
102 99 2
103 2 2
103 5 1
103 8 7
103 10 5
103 11 7
103 15 1
103 19 12
103 20 1
103 21 1
103 27 1
103 28 2
103 31 3
103 32 8
103 33 4
103 35 1
103 40 2
103 41 1
103 43 1
103 44 1
103 45 12
103 48 1
103 51 5
103 53 12
103 54 1
103 56 1
103 57 1
103 58 3
103 59 1
103 60 1
103 62 1
103 65 7
103 69 1
103 71 1
103 73 1
103 74 12
103 79 1
103 80 1
103 81 5
103 83 2
103 85 1
103 86 1
103 87 7
103 88 1
103 90 1
103 92 6
103 95 1
103 99 1
104 1 2
104 2 1
104 3 1
104 10 1
104 11 1
104 15 5
104 16 1
104 17 6
104 18 6
104 19 2
104 21 1
104 22 1
104 23 7
104 24 5
104 26 8
104 27 1
104 28 1
104 29 2
104 33 1
104 34 3
104 36 6
104 41 1
104 42 4
104 43 1
104 44 8
104 45 1
104 49 1
104 50 2
104 53 1
104 54 5
104 55 3
104 56 2
104 57 2
104 58 1
104 59 2
104 61 2
104 64 5
104 67 6
104 68 2
104 70 4
104 71 5
104 72 3
104 73 1
104 74 2
104 76 1
104 80 2
104 81 1
104 82 1
104 83 2
104 85 2
104 86 1
104 91 8
104 92 1
104 93 1
104 95 1
104 96 1
104 97 3
104 100 2
105 1 1
105 3 1
105 5 2
105 7 2
105 8 8
105 10 4
105 11 4
105 12 1
105 13 1
105 18 3
105 19 4
105 25 1
105 27 1
105 28 2
105 30 1
105 31 1
105 32 6
105 33 8
105 35 1
105 36 1
105 38 1
105 40 1
105 42 1
105 43 1
105 45 4
105 46 1
105 47 1
105 50 1
105 51 2
105 53 5
105 54 1
105 58 5
105 59 1
105 61 2
105 63 1
105 65 7
105 67 1
105 68 3
105 69 1
105 70 1
105 71 1
105 72 1
105 73 2
105 74 7
105 79 2
105 80 6
105 81 1
105 86 2
105 87 7
105 91 1
105 92 3
105 94 1
105 95 2
105 98 2
106 2 9
106 3 4
106 4 1
106 5 7
106 7 1
106 9 1
106 14 1
106 15 2
106 16 1
106 18 1
106 20 1
106 26 1
106 28 4
106 29 3
106 30 6
106 32 1
106 33 1
106 35 3
106 39 2
106 40 1
106 43 6
106 46 1
106 47 1
106 50 1
106 52 10
106 55 2
106 57 1
106 60 4
106 61 6
106 65 1
106 66 5
106 71 1
106 72 1
106 73 5
106 74 1
106 75 4
106 79 1
106 85 1
106 86 3
106 88 3
106 90 12
106 93 7
106 95 2
106 97 1
106 99 5
106 100 1
107 2 4
107 3 7
107 5 9
107 6 1
107 8 1
107 10 1
107 13 2
107 14 1
107 15 1
107 19 1
107 20 1
107 22 1
107 24 3
107 25 1
107 26 2
107 28 2
107 29 2
107 30 4
107 31 1
107 32 2
107 35 1
107 36 1
107 39 1
107 43 4
107 48 1
107 52 6
107 53 1
107 55 6
107 56 1
107 59 1
107 60 5
107 61 4
107 63 1
107 66 5
107 68 1
107 73 4
107 75 9
107 76 2
107 78 1
107 79 1
107 86 1
107 87 2
107 88 6
107 89 1
107 90 3
107 92 3
107 93 7
107 94 1
107 97 1
107 99 7
108 1 7
108 3 1
108 4 2
108 6 5
108 7 4
108 9 3
108 10 1
108 12 2
108 13 2
108 14 5
108 15 2
108 16 5
108 17 2
108 20 11
108 21 4
108 22 6
108 24 1
108 25 4
108 26 1
108 27 7
108 29 1
108 30 2
108 31 8
108 34 3
108 35 8
108 37 4
108 38 3
108 39 8
108 40 7
108 41 11
108 43 1
108 46 5
108 47 3
108 48 2
108 49 5
108 54 1
108 56 7
108 57 3
108 59 4
108 60 1
108 61 1
108 62 8
108 63 4
108 65 1
108 66 1
108 67 2
108 68 5
108 69 5
108 70 1
108 71 2
108 74 1
108 76 11
108 77 5
108 78 6
108 79 5
108 82 3
108 83 2
108 84 3
108 85 1
108 86 6
108 87 2
108 88 1
108 89 5
108 90 1
108 91 1
108 94 8
108 95 6
108 96 5
108 98 8
108 99 1
108 100 2
109 2 2
109 4 1
109 5 2
109 8 9
109 10 7
109 11 6
109 15 1
109 16 1
109 17 1
109 19 7
109 23 3
109 26 2
109 28 1
109 32 2
109 33 4
109 34 1
109 37 1
109 38 1
109 40 1
109 42 1
109 45 6
109 46 1
109 48 1
109 51 7
109 52 2
109 53 12
109 57 2
109 58 3
109 59 1
109 65 3
109 66 1
109 67 1
109 69 1
109 71 1
109 73 3
109 74 6
109 76 1
109 77 1
109 80 3
109 81 11
109 85 1
109 86 1
109 87 7
109 89 1
109 90 1
109 92 5
109 93 1
109 94 1
110 1 2
110 3 3
110 4 2
110 8 9
110 10 2
110 11 7
110 14 1
110 19 4
110 21 1
110 22 1
110 25 2
110 29 1
110 32 13
110 33 9
110 36 2
110 38 1
110 39 3
110 40 1
110 43 2
110 45 4
110 46 2
110 48 3
110 49 1
110 50 1
110 51 4
110 52 1
110 53 1
110 55 1
110 58 5
110 60 3
110 65 9
110 66 2
110 67 3
110 69 1
110 70 1
110 71 1
110 72 2
110 73 2
110 74 6
110 75 1
110 78 1
110 79 1
110 80 8
110 81 12
110 83 1
110 84 1
110 87 4
110 91 1
110 92 6
110 96 1
110 99 1
111 2 1
111 5 1
111 7 3
111 8 7
111 9 1
111 10 8
111 11 6
111 13 1
111 17 1
111 19 5
111 23 1
111 25 1
111 28 1
111 32 2
111 33 6
111 34 3
111 35 1
111 37 1
111 40 2
111 42 2
111 44 1
111 45 4
111 47 1
111 53 3
111 56 1
111 57 1
111 58 4
111 59 1
111 61 1
111 63 1
111 64 1
111 65 13
111 67 1
111 68 2
111 72 1
111 74 10
111 77 1
111 78 1
111 79 1
111 80 3
111 81 2
111 83 2
111 86 1
111 87 4
111 92 5
111 93 1
111 95 2
111 97 1
111 99 1
111 100 1
112 1 2
112 4 3
112 8 1
112 9 1
112 10 1
112 13 1
112 15 10
112 17 5
112 18 6
112 20 2
112 23 4
112 24 9
112 25 2
112 26 5
112 29 7
112 31 1
112 33 2
112 35 1
112 36 9
112 37 1
112 38 1
112 40 1
112 42 7
112 43 2
112 44 8
112 47 2
112 48 1
112 49 1
112 50 5
112 53 1
112 54 3
112 58 1
112 62 2
112 64 4
112 67 10
112 70 3
112 71 4
112 72 3
112 76 2
112 80 1
112 83 7
112 91 5
112 92 1
112 97 4
112 98 1
113 6 1
113 7 1
113 8 1
113 10 1
113 11 1
113 15 4
113 17 4
113 18 6
113 23 3
113 24 4
113 26 4
113 27 1
113 28 1
113 29 7
113 30 1
113 32 1
113 36 3
113 37 1
113 38 1
113 39 3
113 42 10
113 43 1
113 44 10
113 45 1
113 47 3
113 50 12
113 51 1
113 54 10
113 56 1
113 59 2
113 64 6
113 66 1
113 67 5
113 68 2
113 69 1
113 70 2
113 71 5
113 72 2
113 74 1
113 76 1
113 77 1
113 78 1
113 79 1
113 83 7
113 89 2
113 90 3
113 91 8
113 97 10
113 98 1
114 2 1
114 4 2
114 6 1
114 9 2
114 15 8
114 17 2
114 18 8
114 23 5
114 24 10
114 25 1
114 26 8
114 29 3
114 30 1
114 32 1
114 33 1
114 35 2
114 36 2
114 37 1
114 38 3
114 39 1
114 40 1
114 42 10
114 44 3
114 45 1
114 46 1
114 47 2
114 48 1
114 49 1
114 50 5
114 51 1
114 53 1
114 54 11
114 56 3
114 58 1
114 64 11
114 66 1
114 67 8
114 68 1
114 70 8
114 71 6
114 72 4
114 74 1
114 75 3
114 77 2
114 78 1
114 79 1
114 81 1
114 83 9
114 85 1
114 91 4
114 93 2
114 94 2
114 96 2
114 97 9
114 99 3
115 1 1
115 2 1
115 3 1
115 5 2
115 12 1
115 15 6
115 17 7
115 18 7
115 19 1
115 23 3
115 24 3
115 25 1
115 26 4
115 29 7
115 33 1
115 35 1
115 36 4
115 42 11
115 44 6
115 46 2
115 50 4
115 54 3
115 55 1
115 56 1
115 57 1
115 63 1
115 64 3
115 65 1
115 67 6
115 69 1
115 70 10
115 71 6
115 72 5
115 73 1
115 76 1
115 77 1
115 79 3
115 81 1
115 83 5
115 86 1
115 90 1
115 91 7
115 94 2
115 97 6
115 99 1
115 100 1
116 1 1
116 4 1
116 7 1
116 8 1
116 9 1
116 10 1
116 11 1
116 15 4
116 16 1
116 17 9
116 18 3
116 23 3
116 24 6
116 25 2
116 26 6
116 29 5
116 30 1
116 32 1
116 33 4
116 35 2
116 37 1
116 38 1
116 40 2
116 42 8
116 44 10
116 45 1
116 46 1
116 48 1
116 50 5
116 51 1
116 54 4
116 57 3
116 58 1
116 59 2
116 60 1
116 63 2
116 64 4
116 67 7
116 70 5
116 71 3
116 72 4
116 74 1
116 75 1
116 76 1
116 78 2
116 79 1
116 83 8
116 88 2
116 91 5
116 92 1
116 96 2
116 97 4
116 98 1
116 99 2
116 100 2
117 1 5
117 3 1
117 4 2
117 6 4
117 7 8
117 9 7
117 12 5
117 13 5
117 15 1
117 16 9
117 17 2
117 19 2
117 20 10
117 21 11
117 22 4
117 25 7
117 27 6
117 30 2
117 31 10
117 33 3
117 34 6
117 35 5
117 36 1
117 37 7
117 38 6
117 39 7
117 40 3
117 41 3
117 42 1
117 43 1
117 45 3
117 46 13
117 47 7
117 48 8
117 49 7
117 50 1
117 51 1
117 52 2
117 54 3
117 55 1
117 56 6
117 57 6
117 59 4
117 61 1
117 62 3
117 63 7
117 65 1
117 68 8
117 69 5
117 72 4
117 75 1
117 76 4
117 77 4
117 78 12
117 79 8
117 82 7
117 84 7
117 85 7
117 86 7
117 87 2
117 89 11
117 90 1
117 91 1
117 92 2
117 93 1
117 94 7
117 95 8
117 96 4
117 98 7
117 100 3
118 1 9
118 4 3
118 6 5
118 7 8
118 8 1
118 9 7
118 12 9
118 13 7
118 14 3
118 16 5
118 20 8
118 21 7
118 22 8
118 25 3
118 27 8
118 28 2
118 30 1
118 31 4
118 33 1
118 34 5
118 35 2
118 36 1
118 37 5
118 38 6
118 39 4
118 40 2
118 41 9
118 42 1
118 46 9
118 47 4
118 48 3
118 49 6
118 50 1
118 51 2
118 56 4
118 57 5
118 58 1
118 59 6
118 61 1
118 62 3
118 63 5
118 66 1
118 68 3
118 69 7
118 71 1
118 76 2
118 77 8
118 78 7
118 79 4
118 82 4
118 83 1
118 84 2
118 85 1
118 86 6
118 87 1
118 88 3
118 89 2
118 90 2
118 94 6
118 95 8
118 96 7
118 98 6
118 100 7
119 1 1
119 2 1
119 10 1
119 12 1
119 14 2
119 15 12
119 16 1
119 17 6
119 18 5
119 19 1
119 20 1
119 23 5
119 24 1
119 26 2
119 29 2
119 31 1
119 32 3
119 33 1
119 34 1
119 36 9
119 38 2
119 42 7
119 44 6
119 47 1
119 48 1
119 50 6
119 54 3
119 55 1
119 58 1
119 59 2
119 60 1
119 64 7
119 67 4
119 70 3
119 71 6
119 72 3
119 73 3
119 76 1
119 77 1
119 79 2
119 81 2
119 82 2
119 83 3
119 84 1
119 85 3
119 86 1
119 88 1
119 91 6
119 94 2
119 95 1
119 97 6
119 100 4
120 1 4
120 4 2
120 6 1
120 7 5
120 9 5
120 12 3
120 13 1
120 14 7
120 16 6
120 18 1
120 19 3
120 20 1
120 21 5
120 22 4
120 25 8
120 27 3
120 30 1
120 31 5
120 33 4
120 34 4
120 35 7
120 36 1
120 37 4
120 38 12
120 39 9
120 40 6
120 41 8
120 42 1
120 44 3
120 46 4
120 47 7
120 48 5
120 49 2
120 50 1
120 52 2
120 53 1
120 55 1
120 56 7
120 57 2
120 58 1
120 59 3
120 62 5
120 63 4
120 64 4
120 65 1
120 68 5
120 69 8
120 70 2
120 71 1
120 72 1
120 73 1
120 76 10
120 77 1
120 78 6
120 79 1
120 81 1
120 82 2
120 84 9
120 85 9
120 86 15
120 87 1
120 88 1
120 89 6
120 92 1
120 94 5
120 95 4
120 96 1
120 97 3
120 98 4
120 99 2
120 100 7
121 4 1
121 6 1
121 10 1
121 11 1
121 12 2
121 13 1
121 15 10
121 17 7
121 18 8
121 19 1
121 22 2
121 23 10
121 24 6
121 26 4
121 27 1
121 29 8
121 33 1
121 36 6
121 37 2
121 39 1
121 42 7
121 44 10
121 45 1
121 47 1
121 50 5
121 51 1
121 53 1
121 54 2
121 56 1
121 59 2
121 60 1
121 63 1
121 64 5
121 67 7
121 68 1
121 70 2
121 71 3
121 72 11
121 77 1
121 78 1
121 83 3
121 84 1
121 85 1
121 88 2
121 90 1
121 91 8
121 92 2
121 96 2
121 97 10
121 98 2
121 99 2
121 100 1
122 4 1
122 8 3
122 9 2
122 10 5
122 11 9
122 12 1
122 15 1
122 16 1
122 19 5
122 21 1
122 23 1
122 30 1
122 31 1
122 32 3
122 33 7
122 34 1
122 35 2
122 36 1
122 37 1
122 43 1
122 45 10
122 46 2
122 48 1
122 49 1
122 50 1
122 51 5
122 52 1
122 53 7
122 54 1
122 55 1
122 58 2
122 60 1
122 62 1
122 63 2
122 65 3
122 67 2
122 69 1
122 73 1
122 74 4
122 75 1
122 79 2
122 80 7
122 81 3
122 83 1
122 85 1
122 86 2
122 87 4
122 88 2
122 91 2
122 92 7
122 94 2
122 95 1
122 96 1
123 4 1
123 6 1
123 8 2
123 10 5
123 11 4
123 12 1
123 13 1
123 16 2
123 17 1
123 18 1
123 19 7
123 20 2
123 22 1
123 23 1
123 26 2
123 28 1
123 29 1
123 32 5
123 33 6
123 35 1
123 42 1
123 45 6
123 49 2
123 50 1
123 51 7
123 53 6
123 55 1
123 56 1
123 57 2
123 58 5
123 59 2
123 62 1
123 65 8
123 69 1
123 70 1
123 72 1
123 74 5
123 76 1
123 79 1
123 80 4
123 81 3
123 82 1
123 84 1
123 85 1
123 87 6
123 89 1
123 92 1
123 93 1
124 2 1
124 6 1
124 7 1
124 8 2
124 10 9
124 11 6
124 13 1
124 16 1
124 19 4
124 20 1
124 21 1
124 25 1
124 29 1
124 30 1
124 32 7
124 33 1
124 36 1
124 39 1
124 42 1
124 43 1
124 45 7
124 46 1
124 49 2
124 51 4
124 53 7
124 54 1
124 58 7
124 60 2
124 61 1
124 63 2
124 65 2
124 67 3
124 72 2
124 73 1
124 74 14
124 75 1
124 78 1
124 80 2
124 81 1
124 82 1
124 84 1
124 85 3
124 87 5
124 89 1
124 90 2
124 92 5
124 96 3
125 34 1
125 60 1
125 93 1
126 8 1
126 39 1
126 44 1
126 85 1
127 4 1
127 23 1
127 69 1
127 80 1
127 83 1
127 89 2
127 98 1
128 17 1
128 25 1
128 55 1
128 66 1
128 69 1
128 77 1
128 96 1
128 97 1
129 18 1
129 27 1
129 55 1
129 60 1
129 63 1
129 75 1
129 88 1
129 96 1
129 99 1
130 4 1
130 14 1
130 74 1
130 80 1
130 88 1
130 93 1
130 100 1
131 17 1
131 29 1
131 39 1
131 42 1
131 72 1
131 77 1
131 89 1
131 100 1
132 22 1
132 25 1
132 31 1
132 54 1
132 70 1
132 73 1
132 94 1
132 100 1
133 9 1
133 21 1
133 34 1
133 37 1
133 53 1
133 67 1
133 81 2
133 97 1
134 26 1
134 29 1
134 34 1
134 49 1
135 6 1
135 9 1
135 10 1
135 16 1
135 17 1
135 61 1
135 66 2
135 91 1
135 100 3
136 1 1
136 24 1
136 36 1
136 39 1
136 41 1
136 61 1
136 79 1
136 100 3
137 39 1
137 40 1
137 51 1
137 55 1
137 86 1
137 100 1
138 15 1
138 36 1
138 38 2
138 84 1
139 1 1
139 22 1
139 25 1
139 35 1
139 39 1
139 60 1
140 6 1
140 21 1
140 48 1
140 51 1
140 71 1
140 84 1
141 7 2
141 20 1
141 39 1
141 41 1
142 44 1
142 53 1
142 65 1
142 77 1
142 96 1
143 7 1
143 9 1
143 16 1
143 24 1
143 54 1
143 67 1
143 73 1
144 5 1
144 13 1
144 69 1
144 70 1
144 95 1
144 99 1
145 8 2
145 9 1
145 14 1
145 33 1
145 38 1
145 46 1
145 55 1
145 60 1
146 6 1
146 26 1
146 37 1
146 52 1
146 68 1
146 70 1
146 74 1
146 81 1
146 86 1
147 3 1
147 12 1
147 15 1
147 54 1
147 57 1
147 70 1
147 80 2
147 85 1
147 87 1
148 8 1
148 10 1
148 15 1
148 18 1
148 36 1
148 37 2
148 80 1
148 98 2
149 11 1
149 13 1
149 29 1
149 40 1
149 46 1
149 64 1
149 98 1
150 32 1
150 42 1
150 56 1
150 74 1
150 84 1
151 34 1
151 50 1
151 53 1
151 55 1
151 70 1
151 90 1
152 28 1
152 36 1
152 39 1
152 41 1
152 54 1
152 93 1
153 23 1
153 32 1
153 42 3
153 86 1
153 99 1
154 13 1
154 17 1
154 46 1
154 76 1
155 9 2
155 11 1
155 24 1
155 27 1
155 28 1
155 86 1
156 2 1
156 8 1
156 39 1
156 44 1
156 56 1
157 2 2
157 12 1
157 27 1
157 41 1
157 57 1
157 68 1
158 2 1
158 22 1
158 68 1
158 84 1
158 86 1
158 95 1
159 19 1
159 24 1
159 42 1
159 44 1
159 47 1
159 60 1
159 62 1
159 66 1
159 79 1
160 2 1
160 3 1
160 7 1
160 11 1
160 36 1
160 51 1
160 52 1
160 78 1
160 89 1
161 30 1
161 32 1
161 44 1
161 50 1
161 82 1
161 85 1
161 94 1
162 20 1
162 49 1
163 19 1
163 42 1
163 49 1
163 54 1
163 74 1
163 83 1
163 89 1
164 9 1
164 45 2
164 48 1
164 84 1
165 3 1
165 6 1
165 18 1
165 26 1
165 37 1
165 41 1
165 63 2
165 68 1
165 69 1
165 70 1
165 77 1
165 81 1
165 85 1
166 13 1
166 14 1
166 22 1
166 25 1
166 36 1
166 62 1
166 91 1
167 8 1
167 15 1
167 18 1
167 36 1
167 42 1
167 50 2
167 55 1
167 85 1
167 89 1
168 4 1
168 25 1
168 41 1
168 59 1
168 74 1
168 88 1
169 17 1
169 29 1
169 63 1
169 65 1
169 73 1
169 89 1
170 2 1
170 43 1
170 46 1
170 55 1
170 78 2
171 13 2
171 15 1
171 18 1
171 48 1
171 67 1
171 69 1
171 86 1
172 14 1
172 38 1
172 50 1
172 51 1
172 67 1
172 79 1
172 84 1
173 12 1
173 47 2
173 52 1
173 65 1
173 84 1
174 3 1
174 43 1
174 56 1
174 79 1
175 19 1
175 46 1
175 54 2
176 14 1
176 34 1
176 45 1
176 49 1
176 70 1
176 77 1
176 90 1
176 96 1
177 2 1
177 10 1
177 33 1
177 34 1
177 63 1
177 73 1
177 95 1
178 3 1
178 8 1
178 32 1
178 40 1
178 95 1
179 27 1
179 45 1
179 57 1
179 61 1
179 79 1
179 87 1
179 91 2
179 93 1
179 97 1
180 39 1
180 44 1
180 67 1
180 71 1
180 88 1
180 91 1
181 1 2
181 19 1
181 25 2
181 29 1
181 42 1
181 45 1
181 56 1
181 68 1
181 89 1
182 9 1
182 19 1
182 22 1
182 25 1
182 26 1
182 33 1
182 55 1
182 68 1
183 6 1
183 14 1
183 17 1
183 57 1
183 83 1
184 20 1
184 33 1
184 42 1
184 71 1
184 76 1
184 95 1
185 7 1
185 10 1
185 19 1
185 27 1
185 42 1
185 46 1
185 63 1
185 74 1
186 3 1
186 18 1
186 25 1
186 27 1
186 39 1
186 52 2
186 62 2
186 78 2
187 5 1
187 69 1
187 90 1
187 93 1
187 98 1
188 2 1
188 7 1
188 9 1
188 42 1
188 58 1
188 61 2
188 66 1
188 76 1
188 88 1
188 89 1
188 96 1
189 16 2
189 40 1
189 72 1
189 81 2
189 94 1
190 13 1
190 15 1
190 28 1
190 47 1
190 55 1
190 63 1
190 76 1
190 84 1
190 96 1
191 24 1
191 30 1
191 38 1
191 59 1
191 80 1
191 85 1
192 14 2
192 47 1
192 48 1
192 54 1
192 68 1
192 88 1
193 4 1
193 67 1
193 84 1
194 15 1
194 26 1
194 30 1
194 35 1
194 36 1
194 39 1
194 63 1
194 68 1
195 14 1
195 64 1
195 69 1
195 82 1
195 91 1
195 95 2
196 3 1
196 17 1
196 18 1
196 42 1
196 43 1
196 46 1
196 62 1
196 67 1
196 76 1
196 80 1
197 56 1
197 57 1
197 67 1
197 87 1
197 95 1
198 3 1
198 11 1
198 34 1
198 44 1
198 55 2
198 60 1
198 68 1
198 70 1
198 74 1
198 76 1
198 81 1
199 7 1
199 12 1
199 40 1
199 42 1
199 50 1
199 75 1
199 91 1
200 4 1
200 39 1
200 45 1
200 80 2
200 87 1
200 100 1
201 21 1
201 27 1
201 50 1
201 72 1
202 12 1
202 36 1
202 78 1
203 16 1
203 17 1
203 29 1
203 60 1
203 68 2
203 88 1
203 94 1
204 1 1
204 9 1
204 15 1
204 23 1
204 41 1
204 46 1
204 52 1
204 65 1
204 68 1
204 86 1
204 92 1
205 6 1
205 24 1
205 49 1
205 68 1
205 75 1
205 92 1
206 18 1
206 58 2
206 61 1
206 82 1
207 6 1
207 20 1
207 22 1
207 33 1
207 40 1
207 57 1
207 82 1
207 86 1
207 93 1
208 1 1
208 4 1
208 43 1
208 79 1
209 23 1
209 62 1
209 64 2
209 92 1
210 5 1
210 17 1
210 25 1
210 54 2
210 67 1
211 11 1
211 33 1
211 39 1
211 53 1
211 59 1
211 63 1
211 72 1
211 78 1
211 89 1
211 94 1
211 96 1
212 6 3
212 16 1
212 19 1
212 28 1
212 34 1
212 35 1
212 58 1
212 72 1
212 87 1
212 90 1
212 94 1
213 62 1
214 12 1
214 15 1
214 32 1
214 36 1
214 41 1
214 45 1
214 54 2
214 58 1
214 62 1
215 4 1
215 20 1
215 56 1
215 71 1
216 17 1
216 21 1
216 51 1
216 70 1
217 25 1
217 31 1
217 46 1
217 65 1
217 77 1
217 84 1
217 89 1
218 8 1
218 10 1
218 19 1
218 47 1
218 58 1
218 62 1
218 66 1
218 69 2
218 82 1
218 83 1
219 4 1
219 59 1
219 61 1
219 63 2
219 68 1
219 89 1
219 93 1
219 96 1
220 56 1
220 62 1
220 82 1
220 83 1
220 88 1
221 7 1
221 50 1
221 64 1
221 77 1
222 7 1
222 14 1
222 44 1
222 52 1
222 57 1
222 65 1
223 13 1
223 29 1
223 51 1
223 59 1
223 66 1
223 73 1
223 99 1
223 100 1
224 2 1
224 11 1
224 35 1
224 51 1
224 71 1
224 73 1
224 83 1
224 87 1
224 88 1
224 97 1
225 2 1
225 38 1
225 49 1
225 65 1
225 79 1
225 81 1
225 88 2
226 1 1
226 14 1
226 17 1
226 33 2
226 59 1
226 74 1
227 26 1
227 43 1
227 57 1
227 72 1
227 77 1
228 10 1
228 39 1
228 66 1
228 67 1
228 97 1
229 18 1
229 36 1
229 48 1
229 55 1
229 76 1
229 90 1
229 92 2
230 8 1
230 13 1
230 27 1
230 58 1
231 3 1
231 10 1
231 14 1
231 31 1
231 38 1
231 46 1
231 94 1
232 5 1
232 12 1
232 18 1
232 21 1
232 22 1
232 99 1
233 22 1
233 52 1
233 57 1
233 91 1
234 6 1
234 16 1
234 17 1
234 20 1
234 34 2
234 39 1
234 48 1
234 55 1
234 85 1
234 97 1
235 25 1
235 64 1
235 94 1
235 95 1
235 96 1
236 35 1
236 45 1
236 55 1
236 68 1
236 71 1
236 87 1
237 53 1
237 72 1
237 81 1
238 1 1
238 14 1
238 16 1
238 60 1
238 89 1
239 12 1
239 42 1
239 48 1
240 39 1
240 51 1
240 57 1
240 93 1
241 7 1
241 14 1
241 56 1
241 77 1
242 7 1
242 61 2
242 72 1
242 75 2
242 87 1
243 10 1
243 20 1
243 31 1
243 56 1
243 69 2
243 87 1
244 8 2
244 52 1
244 61 1
244 87 1
244 97 1
245 1 1
245 15 1
245 38 1
245 45 1
245 56 1
245 77 1
246 2 1
246 57 1
246 61 1
246 74 1
246 79 1
246 91 1
246 94 1
246 98 1
247 5 1
247 8 1
247 15 1
247 32 1
247 33 1
247 45 2
247 50 1
247 61 1
247 69 1
247 76 1
247 94 1
247 97 1
248 10 1
248 18 1
248 27 1
248 41 1
248 47 1
248 56 1
248 60 1
248 73 1
248 75 1
248 78 1
248 79 1
248 92 1
248 93 1
248 99 1
248 100 2
249 5 1
249 21 1
249 25 1
249 40 1
249 44 1
249 48 1
249 49 2
249 58 1
249 67 1
249 74 1
249 77 1
249 81 1
249 82 1
249 91 1
250 18 1
250 20 1
250 39 1
250 64 1
250 72 1
250 79 1
250 83 1
250 88 2
250 95 1
250 97 1
251 4 1
251 7 1
251 41 1
251 63 1
251 75 1
251 96 1
252 11 1
252 46 1
252 48 1
252 78 1
253 2 1
253 10 1
253 26 1
253 97 1
254 10 1
254 26 1
254 40 1
254 48 1
254 76 2
254 89 1
254 93 1
255 14 1
255 17 1
255 30 1
255 44 1
255 51 1
255 56 1
255 58 1
255 68 1
256 2 2
256 12 1
256 25 1
256 51 1
256 61 1
256 62 1
257 13 2
257 54 1
257 74 1
258 9 1
258 16 1
258 31 1
258 56 1
258 78 1
258 94 1
258 95 1
259 28 1
259 44 1
259 58 1
259 86 1
259 93 2
260 4 1
260 15 1
260 17 1
260 49 1
260 64 1
260 76 1
261 17 1
261 19 2
261 25 2
261 31 1
261 40 1
261 58 1
261 59 1
261 68 1
261 71 1
262 6 1
262 25 1
262 49 1
262 67 1
262 68 1
262 75 1
262 78 1
262 80 1
262 88 1
262 96 2
263 28 1
263 46 1
263 52 1
263 82 1
263 93 1
264 2 1
264 12 1
264 34 1
264 41 1
264 46 1
264 77 1
264 86 1
264 96 1
265 24 2
266 23 1
266 44 1
266 49 1
266 67 1
266 71 1
266 74 1
266 80 1
266 91 1
267 5 1
267 8 1
267 12 1
267 21 1
267 23 1
267 46 1
267 53 1
267 75 1
267 82 1
267 94 1
268 13 1
268 54 1
268 75 1
268 78 1
268 82 1
268 94 1
269 20 1
269 24 1
269 26 1
269 34 1
269 41 2
269 48 1
269 65 1
269 71 1
270 2 1
270 26 1
270 31 1
270 34 1
270 69 1
270 80 2
270 81 1
270 88 1
270 89 1
270 95 1
270 98 1
271 8 1
271 29 1
271 33 1
271 42 1
271 49 1
271 55 2
271 60 2
271 69 1
271 94 1
272 45 1
272 60 1
272 64 1
272 73 1
273 1 1
273 33 1
273 35 1
273 40 1
273 48 1
273 81 1
274 1 2
274 35 1
274 65 1
274 74 1
274 83 1
275 35 1
275 65 1
275 66 1
275 86 2
275 95 1
276 4 1
276 5 1
276 37 1
276 46 1
276 52 1
276 56 1
276 57 1
276 64 1
276 81 1
276 89 1
277 9 1
277 15 1
277 43 1
277 57 1
277 78 1
277 83 1
277 88 1
278 2 1
278 7 1
278 13 1
278 24 1
278 26 1
278 31 1
278 44 1
278 76 1
279 1 1
279 11 1
279 17 1
279 19 1
279 30 1
279 44 1
279 58 1
279 59 1
279 62 1
279 89 1
279 100 1
280 7 1
280 14 1
280 22 2
280 23 1
280 38 1
280 47 1
280 63 1
280 67 1
280 74 1
280 87 1
280 91 1
281 20 1
281 28 1
281 82 1
281 83 1
282 31 1
282 70 1
282 99 1
283 6 1
283 27 1
283 37 1
283 77 1
284 16 2
284 28 1
284 29 1
284 73 1
285 4 1
285 7 1
285 19 1
285 25 1
285 47 1
285 51 1
285 74 1
286 2 1
286 90 1
287 6 1
287 8 1
287 23 2
287 64 1
287 94 1
288 12 1
288 29 1
288 41 1
288 51 1
288 62 1
288 70 1
289 21 1
289 25 1
289 58 1
289 61 1
289 75 1
289 86 1
290 25 1
290 51 1
290 53 1
291 55 1
292 4 1
292 22 1
292 35 1
292 50 1
292 97 1
292 100 1
293 1 1
293 2 1
293 37 1
293 83 1
293 86 2
294 6 1
294 12 1
294 17 1
294 65 1
294 66 1
294 70 1
294 78 1
294 81 1
294 88 1
295 10 1
295 12 1
295 16 1
295 30 1
295 51 1
295 54 1
295 90 1
296 4 2
296 34 1
296 68 2
296 83 1
296 87 1
296 99 1
297 10 1
297 15 1
297 21 1
297 23 1
297 59 1
297 63 1
297 67 1
297 90 1
297 100 1
298 12 2
298 15 1
298 17 1
298 24 1
298 25 1
298 71 1
299 15 2
299 18 1
299 23 1
299 45 1
299 66 1
299 78 1
299 84 1
299 89 2
300 21 1
300 37 1
300 64 1
300 74 1
300 89 1
300 96 1
301 21 1
301 22 1
301 30 1
301 44 1
301 59 1
301 80 1
301 87 1
302 13 1
302 25 1
302 40 2
302 67 1
302 81 1
303 5 1
303 16 1
303 18 2
303 32 1
303 62 1
303 75 1
303 76 1
303 99 1
304 14 1
304 17 1
304 38 1
304 68 1
304 76 1
305 7 2
305 20 1
305 42 1
305 72 1
305 78 1
305 84 1
306 1 1
306 7 1
306 30 1
306 31 2
306 85 1
306 98 2
307 38 1
307 71 1
307 93 1
307 96 1
307 97 1
308 2 1
308 16 1
308 19 1
308 43 1
308 54 1
308 80 1
309 13 1
309 16 1
309 90 1
310 9 1
310 30 1
310 58 1
310 69 1
311 10 1
311 20 1
311 35 1
311 78 1
311 90 2
311 99 1
312 3 1
312 31 1
312 33 1
312 36 1
312 68 1
312 70 1
312 74 1
313 13 1
313 52 1
313 99 1
314 13 1
314 46 1
314 72 1
314 90 1
315 6 1
315 34 1
315 35 1
315 36 1
315 37 1
315 62 1
315 63 1
315 65 1
315 72 1
315 75 1
315 82 2
315 85 3
316 18 1
316 28 1
316 59 1
316 83 1
316 88 1
316 90 2
316 92 1
317 5 1
317 20 1
317 56 1
317 62 1
317 65 1
317 79 1
317 92 1
318 19 1
318 23 1
318 28 2
318 42 1
318 52 1
318 58 1
318 59 1
318 68 1
318 83 1
318 93 1
319 25 1
319 37 1
319 41 1
319 43 1
319 44 1
319 56 1
319 57 1
319 79 1
319 80 1
320 17 2
320 23 1
320 27 1
320 32 1
320 34 1
320 41 1
320 48 1
320 55 1
320 65 1
320 67 1
320 76 1
320 85 1
320 87 2
321 12 1
321 14 1
321 17 1
321 25 1
321 57 1
321 59 1
321 74 1
322 4 1
322 5 1
322 44 2
322 92 1
322 96 1
323 5 1
323 9 1
323 14 1
323 20 1
323 93 1
324 4 1
324 24 2
324 56 1
324 76 1
324 83 1
325 6 1
325 11 2
325 12 1
325 39 1
325 62 1
325 73 1
325 79 1
325 98 1
326 10 1
326 30 1
326 36 1
326 37 1
326 65 1
327 7 1
327 31 1
327 70 1
327 74 1
327 75 1
327 100 1
328 6 2
328 14 1
328 15 1
328 30 1
328 70 1
328 86 1
329 9 2
329 21 1
329 35 1
329 51 1
329 78 1
329 89 1
329 93 1
330 19 1
330 40 1
330 49 1
330 53 1
330 69 1
330 77 1
330 93 1
331 11 1
331 23 1
331 25 1
331 32 1
331 59 1
331 82 1
331 84 1
331 85 1
331 87 3
331 96 1
332 16 1
332 18 1
332 21 1
332 26 1
332 30 1
332 36 1
332 74 1
332 78 1
333 17 1
333 39 1
333 45 1
333 84 1
333 99 1
334 4 2
334 9 1
334 28 1
334 45 1
334 55 1
334 64 2
334 67 1
334 74 1
334 93 1
335 13 1
335 18 1
335 41 1
335 60 2
335 72 1
335 78 1
335 82 1
335 94 1
336 4 1
336 6 1
336 14 1
336 19 1
336 32 1
336 52 1
336 66 1
336 79 1
336 84 1
336 97 1
336 98 1
337 9 2
337 11 1
337 35 1
337 37 1
337 47 1
337 81 1
337 85 1
337 99 1
338 23 1
338 50 1
338 75 1
338 77 1
338 94 1
339 11 1
339 14 1
339 25 1
339 30 2
339 39 1
339 83 1
339 86 1
340 8 1
340 9 1
340 23 1
340 55 1
340 61 1
340 69 1
340 80 1
341 8 1
341 12 1
341 15 1
341 35 1
341 38 1
341 48 1
341 50 1
341 81 1
342 29 1
342 74 1
342 76 1
342 97 1
343 5 1
343 45 1
343 49 1
343 57 1
343 59 1
343 93 1
344 4 1
344 5 1
344 12 2
344 13 1
344 20 2
344 22 1
344 42 1
344 55 1
344 61 1
344 66 1
344 77 1
344 85 1
344 89 1
344 91 1
345 2 1
345 18 1
345 53 1
345 56 1
345 99 1
346 4 1
346 7 2
346 20 1
346 45 1
346 57 1
346 74 1
347 3 1
347 4 1
347 62 1
347 70 1
347 88 1
347 92 1
348 10 2
348 33 1
348 51 1
348 84 1
349 8 1
349 28 1
349 39 1
349 60 1
349 67 1
349 76 1
350 1 1
350 12 1
350 36 1
350 43 1
350 47 1
350 62 1
350 74 1
350 75 1
350 100 1
351 2 1
351 52 1
351 57 2
351 74 1
351 91 1
352 10 1
352 13 1
352 14 1
352 18 1
352 42 1
352 43 1
352 47 2
352 53 1
352 70 1
352 88 1
353 13 1
353 16 1
353 21 1
354 6 1
354 21 1
354 26 1
354 30 1
354 33 1
354 96 1
355 21 1
355 32 1
355 83 1
356 29 1
356 36 1
356 41 1
356 54 1
356 89 1
357 6 1
357 45 1
358 27 1
358 43 1
358 54 1
358 76 1
358 77 1
358 80 1
358 92 1
358 95 1
359 5 1
359 9 1
359 14 1
359 26 1
359 40 1
359 91 1
360 7 1
360 20 1
360 34 1
360 37 1
360 87 1
360 91 1
361 30 1
361 42 1
361 59 1
361 98 1
362 32 1
362 41 1
362 45 1
362 62 1
362 65 1
362 67 1
362 69 1
362 98 1
363 20 1
363 23 1
363 24 1
363 39 1
363 58 1
363 60 1
363 85 1
363 86 2
363 90 1
364 53 2
364 75 1
364 78 1
364 83 1
365 22 1
365 48 1
365 54 1
365 58 1
365 62 1
365 74 1
365 75 1
365 80 1
365 81 1
365 94 1
366 29 1
366 34 1
366 44 1
366 60 1
366 67 1
366 93 1
367 3 1
367 23 1
367 24 1
367 25 1
367 67 1
367 77 1
367 80 1
368 14 1
368 36 1
368 46 1
368 54 1
368 56 1
368 72 1
368 73 1
368 88 2
369 51 2
369 54 1
369 80 1
370 53 1
370 54 1
370 69 2
370 72 1
370 87 1
371 5 2
371 9 1
371 18 1
371 19 1
371 47 1
371 78 1
371 84 1
371 98 1
372 1 1
372 14 2
372 26 1
372 42 2
372 56 1
372 60 1
372 62 1
372 87 1
372 88 1
372 90 1
372 99 1
373 15 1
373 22 1
373 30 1
373 44 1
373 55 1
373 67 1
373 87 1
373 95 1
374 20 2
374 41 1
374 60 1
374 72 1
374 75 1
374 81 1
374 82 1
374 100 1
375 28 1
375 33 1
375 43 1
375 46 1
375 51 1
375 58 1
376 5 1
376 6 2
376 16 1
376 18 1
376 43 1
376 53 1
376 55 1
376 73 1
376 74 2
376 85 1
376 98 2
377 17 1
377 24 2
377 27 1
377 29 1
377 40 1
377 58 1
377 62 2
377 67 1
377 70 1
377 74 1
377 85 1
377 86 1
378 35 1
378 39 1
378 71 1
378 76 1
378 78 1
378 98 1
379 3 1
379 9 1
379 21 1
379 35 1
379 36 1
379 58 1
379 65 1
379 93 1
380 8 1
380 14 1
380 30 1
380 42 1
380 48 1
380 61 1
380 67 1
380 69 1
380 75 1
380 84 1
381 15 1
381 16 1
381 47 1
381 56 1
381 91 1
381 95 1
381 97 1
382 2 1
382 8 3
382 22 1
382 51 2
382 57 1
382 60 1
382 85 1
383 5 1
383 67 1
383 90 1
384 27 2
384 42 1
384 48 1
384 57 1
384 69 1
384 70 1
384 75 1
384 80 1
384 87 1
384 99 1
385 12 1
385 13 1
385 35 2
385 38 1
385 44 1
385 59 1
385 70 1
385 79 1
385 84 1
385 92 1
385 95 1
386 22 1
386 85 1
387 4 1
387 13 1
387 19 1
387 22 1
387 55 2
387 72 1
387 81 1
387 87 1
387 92 1
388 26 1
388 47 1
388 62 1
388 79 1
388 97 1
389 21 1
389 47 2
389 78 1
390 66 1
390 67 1
391 2 1
391 8 1
391 17 1
391 45 1
391 49 1
391 55 1
391 58 1
391 66 1
391 68 1
391 82 1
391 83 1
391 97 1
391 100 1
392 21 1
392 28 1
392 34 1
392 53 1
392 55 1
392 87 1
392 88 1
392 90 1
393 3 1
393 12 1
393 38 2
393 43 1
393 52 1
393 69 1
393 73 1
393 96 1
394 5 1
394 32 2
394 37 1
394 52 1
394 81 1
394 87 1
395 14 1
395 15 1
395 18 1
395 33 2
395 38 1
395 49 1
395 51 1
395 54 1
395 66 1
395 74 1
395 93 1
396 6 1
396 18 1
396 38 1
396 54 1
396 60 1
396 61 1
396 62 1
396 63 1
396 75 1
396 83 1
396 95 1
397 3 1
397 18 1
397 33 1
397 38 1
397 63 1
397 81 1
397 93 1
397 95 1
398 19 1
398 37 1
398 46 1
398 53 1
398 55 1
398 61 2
398 78 1
399 8 1
399 12 1
399 31 1
399 41 1
399 52 1
399 76 1
400 9 1
400 28 1
400 36 1
400 37 1
400 82 2
400 89 1
401 71 1
401 74 1
401 75 1
401 95 1
401 96 1
402 1 1
402 36 1
402 49 1
402 66 1
402 89 1
403 6 1
403 10 1
403 26 1
403 42 1
403 61 1
403 81 2
403 89 2
403 99 1
404 15 1
404 33 1
404 35 1
404 51 1
404 56 1
404 62 1
404 76 2
405 10 1
405 34 1
405 36 1
405 48 1
405 65 1
405 67 1
405 74 1
405 75 1
405 83 1
405 89 1
405 90 1
405 99 1
406 22 1
406 29 1
406 31 1
406 32 1
406 36 1
406 69 1
407 15 1
407 17 1
407 21 1
407 53 1
407 61 2
407 73 1
407 95 1
408 38 1
408 42 2
408 43 1
408 53 1
408 73 1
408 77 1
408 84 2
408 86 1
408 97 1
409 60 1
409 82 1
409 83 1
409 99 1
410 26 1
410 31 1
410 47 1
410 78 1
410 79 1
411 1 1
411 9 1
411 19 1
411 25 1
411 27 1
411 34 1
411 46 1
411 71 1
411 76 1
411 82 1
412 3 1
412 25 1
412 50 1
412 58 1
413 5 1
413 21 2
413 26 1
413 33 1
413 39 1
413 54 1
413 58 1
413 65 1
413 71 1
413 88 1
414 15 1
414 36 1
414 55 1
414 85 1
414 88 1
415 4 2
415 7 1
415 10 2
415 20 2
415 27 1
415 40 1
415 72 1
415 90 1
416 2 1
416 23 1
416 36 1
416 64 1
416 66 1
417 41 1
417 46 1
418 28 1
418 67 1
418 91 1
419 5 1
419 39 1
419 41 1
419 46 2
419 76 1
419 79 1
420 61 1
420 81 1
420 91 1
420 95 1
421 23 1
421 27 1
421 50 1
421 53 1
421 71 1
421 80 1
421 96 1
422 6 1
422 9 2
422 13 1
422 14 1
422 18 1
422 32 1
422 95 1
423 1 1
423 7 1
423 12 1
423 61 1
424 19 1
424 24 1
424 31 1
424 40 1
424 62 1
424 65 1
425 3 1
425 12 1
425 13 1
425 26 1
425 53 1
425 56 1
425 79 1
426 20 1
426 25 1
426 33 1
426 34 1
426 63 1
426 76 1
427 12 1
427 13 1
427 14 1
427 25 1
427 43 1
427 44 1
427 74 1
427 82 1
428 16 1
428 32 1
428 37 1
428 57 1
428 60 1
428 69 1
428 75 1
428 80 1
428 96 1
429 10 1
429 16 1
429 23 1
429 42 1
429 64 1
429 76 1
429 85 1
429 95 1
430 3 1
430 11 1
430 12 1
430 17 1
430 42 1
430 63 1
430 96 2
430 100 1
431 10 1
431 13 1
431 61 1
431 93 1
432 23 1
432 37 1
432 39 1
432 53 1
432 57 2
432 59 1
432 81 1
432 97 1
433 3 1
433 4 1
433 25 1
433 40 1
433 71 1
433 89 1
434 9 1
434 14 1
434 27 1
434 36 1
434 51 1
434 64 1
434 82 1
434 91 1
434 100 1
435 14 2
435 61 1
436 8 2
436 19 1
436 28 1
436 39 2
436 51 1
436 55 1
436 57 2
436 62 1
436 69 1
436 73 1
436 74 1
436 85 1
437 46 1
437 67 1
437 97 1
437 99 1
438 5 1
438 15 1
438 91 1
438 95 1
438 96 2
439 3 1
439 20 1
439 42 1
439 67 1
439 78 1
440 12 1
440 15 1
440 20 1
440 21 1
440 25 2
440 37 1
440 40 1
440 68 1
440 69 1
441 10 1
441 20 1
441 24 1
441 25 1
441 43 1
441 78 3
442 21 1
442 27 1
442 66 1
442 85 1
443 10 1
443 38 1
443 41 1
443 57 1
443 77 1
443 96 1
444 33 1
444 34 1
444 43 1
444 45 1
444 64 1
444 83 1
444 95 1
445 7 1
445 26 1
445 36 1
445 63 1
445 68 1
445 89 1
446 11 1
446 16 1
446 31 1
446 42 1
446 97 1
447 3 1
447 32 1
447 36 1
447 46 1
447 61 1
447 97 1
448 79 1
449 5 1
449 47 1
449 49 1
450 71 2
450 75 1
450 84 1
450 94 1
451 66 1
451 89 1
452 14 1
452 64 1
452 76 1
452 80 1
452 94 1
452 95 2
453 5 2
453 10 2
453 53 1
453 74 1
453 78 1
454 19 2
454 29 1
454 69 1
454 82 1
454 93 1
455 3 1
455 25 1
455 31 1
455 56 1
455 77 1
455 92 1
456 16 1
456 39 1
456 49 2
456 54 1
456 59 1
456 69 1
456 77 1
456 84 1
456 92 2
457 14 1
457 39 1
457 48 1
457 57 1
457 66 1
457 84 1
458 17 1
458 48 1
458 71 1
458 100 1
459 15 1
459 20 1
459 40 1
459 53 1
459 98 1
460 4 1
460 16 2
460 61 1
460 62 2
460 63 1
460 66 1
460 69 1
460 76 1
460 78 1
460 90 1
461 3 1
461 57 1
461 58 2
461 76 1
462 8 1
462 32 1
463 22 1
463 28 1
463 49 1
463 50 1
463 61 1
463 82 1
463 98 1
463 100 1
464 45 1
464 47 1
464 52 2
464 56 1
464 61 1
464 67 1
464 69 2
464 85 1
465 2 1
465 3 1
465 6 1
465 20 1
465 31 1
465 48 1
465 57 1
465 59 1
465 74 1
465 88 1
466 11 1
466 27 1
466 32 1
466 76 1
466 98 1
467 14 1
467 17 1
467 32 1
467 33 1
467 38 1
467 45 1
467 48 1
467 55 1
467 58 1
467 64 1
467 87 1
468 4 1
468 21 1
468 39 1
468 65 1
468 67 1
468 76 1
468 85 1
469 16 1
469 17 2
469 52 1
469 59 1
469 68 1
469 92 1
469 98 1
470 2 1
470 17 1
470 22 1
470 24 1
470 29 1
470 30 1
470 39 1
470 54 1
470 56 1
470 62 1
470 98 1
471 1 2
471 84 1
471 89 1
471 99 1
472 8 1
472 13 1
472 27 1
472 32 1
472 67 1
472 84 1
472 88 1
473 35 1
473 41 1
473 65 1
473 69 1
473 71 1
473 84 1
473 94 1
473 96 1
474 2 2
474 8 1
474 43 1
474 88 1
475 19 1
475 30 1
475 38 1
475 49 1
475 67 1
475 95 1
475 100 1
476 4 1
476 9 1
476 55 1
476 66 1
476 70 1
476 75 2
476 84 1
476 100 1
477 44 1
477 63 1
477 65 1
477 68 1
477 77 1
477 80 1
477 85 1
477 88 1
477 89 1
478 23 1
478 38 1
478 54 2
478 74 1
478 77 1
478 87 1
478 91 1
479 6 1
479 10 1
479 43 1
479 52 1
480 3 1
480 4 1
480 46 1
480 50 1
480 59 1
480 69 1
480 92 1
480 95 2
480 99 1
481 18 1
481 38 1
481 39 1
481 68 1
481 80 1
481 97 1
482 5 1
482 51 2
482 52 1
482 54 1
482 89 1
483 11 1
483 13 1
483 18 1
483 44 1
483 52 1
483 65 2
483 75 1
483 84 1
483 86 1
484 9 1
484 13 1
484 17 1
484 18 1
484 22 1
484 56 1
484 86 1
485 10 1
485 39 1
485 41 1
485 57 1
485 58 1
486 2 1
486 3 1
486 16 1
486 19 1
486 23 1
486 44 1
486 61 1
486 63 1
486 75 1
486 84 2
486 85 1
487 3 1
487 20 1
487 53 1
487 66 1
488 4 1
488 24 1
488 37 1
488 49 1
488 54 1
488 67 1
488 99 1
489 24 1
489 33 1
489 47 1
489 54 1
489 56 1
489 57 1
489 70 1
490 30 1
490 44 1
490 50 1
490 61 1
490 89 2
490 100 1
491 33 1
491 45 1
491 61 1
491 72 1
491 76 1
491 78 1
491 79 1
492 4 1
492 7 1
492 41 1
492 57 1
492 97 1
493 12 1
493 13 1
493 16 1
493 20 1
493 43 1
493 80 1
494 2 1
494 4 1
494 44 1
494 50 1
494 61 2
494 68 2
494 96 1
495 35 1
495 41 1
495 53 1
495 77 1
495 83 2
496 12 1
496 13 1
496 15 1
496 35 2
496 54 2
496 62 1
496 63 1
497 3 1
497 13 1
497 48 1
497 68 1
497 82 1
497 84 1
497 94 1
498 14 1
498 19 1
498 21 1
498 43 1
498 59 1
498 80 1
498 94 1
498 99 1
499 4 1
499 22 2
499 30 1
499 42 1
499 92 1
499 95 1
499 97 1
500 11 1
500 17 1
500 48 2
501 30 2
501 41 1
501 64 1
502 12 2
502 21 1
502 29 1
502 61 1
502 66 1
502 78 1
502 85 1
502 91 1
503 7 1
503 34 1
503 36 2
503 56 1
504 9 1
504 17 1
504 26 1
504 32 2
504 74 1
504 79 1
504 96 1
505 1 1
505 9 2
505 25 1
505 44 1
505 61 1
505 92 1
506 20 1
506 67 1
506 69 1
506 84 1
507 14 1
507 36 1
507 40 1
507 49 1
507 70 1
507 74 1
508 31 1
508 34 1
508 86 1
508 89 1
508 98 1
509 9 1
509 11 1
509 18 1
509 27 1
509 35 1
509 53 1
509 63 1
509 86 1
510 3 1
510 6 1
510 13 1
510 56 1
510 68 1
510 78 1
510 82 1
511 5 1
511 10 1
511 12 1
511 15 1
511 21 1
511 28 1
511 39 1
511 40 1
511 91 1
512 25 1
512 34 2
512 44 1
512 51 2
512 62 2
512 76 1
512 80 1
513 6 1
513 14 1
513 20 1
513 25 1
513 45 1
513 54 1
513 55 1
513 75 1
513 95 1
513 97 1
514 8 1
514 19 1
514 21 1
514 34 1
514 67 1
514 68 1
514 77 1
514 93 1
514 99 1
515 35 1
515 43 1
515 45 1
515 52 1
515 63 1
515 66 1
515 76 2
515 92 1
516 28 2
516 37 1
516 59 1
516 62 2
516 68 1
516 75 1
516 76 1
516 82 1
517 14 1
517 24 1
517 31 1
517 48 1
517 68 2
517 80 1
517 90 1
517 95 1
517 98 1
518 14 1
518 22 1
518 35 1
518 43 1
518 68 1
518 97 1
519 5 1
519 13 1
519 16 1
519 18 2
519 19 1
519 49 1
519 53 1
519 56 1
519 74 1
520 5 1
520 12 1
520 24 1
520 40 1
520 60 1
520 64 1
520 67 1
520 87 1
520 92 1
520 94 1
520 99 2
521 5 3
521 11 1
521 18 1
521 22 1
521 40 1
521 42 1
521 43 1
521 45 1
521 56 1
521 73 1
521 85 1
521 87 1
522 16 1
522 79 1
522 89 1
522 99 1
523 28 1
523 42 1
523 54 1
523 69 1
523 80 1
524 6 2
524 21 1
524 44 1
524 47 1
524 56 1
524 84 1
524 87 1
524 98 2
525 8 1
525 15 1
525 22 2
525 29 1
525 60 1
525 63 1
526 9 1
526 19 1
526 39 1
526 40 1
526 60 1
526 63 1
526 84 2
526 99 1
527 21 1
527 62 1
528 7 1
528 34 1
528 36 1
528 44 1
528 51 1
528 54 1
528 64 1
528 76 1
528 77 1
528 100 2
529 5 1
529 20 1
529 24 1
529 38 1
529 48 1
529 54 1
529 88 1
530 3 1
530 14 1
530 15 2
530 29 1
530 46 1
530 55 1
531 10 1
531 20 1
531 42 1
531 50 1
531 54 1
531 87 1
531 90 1
532 29 1
532 56 1
532 59 1
532 61 1
532 92 1
532 93 1
533 10 1
533 18 1
533 37 1
533 38 1
533 59 1
533 66 2
533 68 2
533 88 1
533 96 1
534 1 1
534 7 1
534 23 1
534 31 1
534 42 1
534 53 1
534 63 1
534 80 1
534 84 1
534 99 1
535 17 1
535 21 1
535 22 1
535 64 1
535 77 2
535 82 1
535 84 1
535 85 1
535 90 1
536 20 1
536 28 1
536 44 3
536 46 1
536 89 1
537 11 1
537 14 1
538 10 1
538 11 1
538 22 1
538 28 1
538 44 1
538 60 1
539 53 2
539 58 1
539 94 1
539 97 1
539 100 1
540 21 1
540 36 1
540 65 1
540 71 2
540 92 2
540 94 1
540 96 1
541 28 1
541 36 1
541 53 1
541 71 1
541 74 1
541 76 1
541 91 1
542 97 1
543 36 1
543 51 1
543 78 1
543 88 1
544 10 1
544 11 1
544 65 1
544 76 1
544 90 1
545 3 1
545 11 3
545 29 1
545 44 1
545 49 1
545 91 1
546 12 1
546 21 1
546 36 1
546 40 1
546 54 1
546 59 1
546 60 1
546 64 1
546 66 1
547 18 1
547 33 1
547 40 2
547 88 1
548 22 1
548 42 1
548 45 1
549 30 1
549 55 1
549 60 1
549 69 2
549 72 1
550 14 1
550 16 1
550 23 1
550 29 1
550 39 1
550 43 2
550 54 2
550 58 1
550 77 1
551 1 1
551 17 1
551 38 1
551 81 1
552 2 1
552 24 1
552 36 1
552 37 1
552 67 1
552 89 1
552 94 1
553 8 2
553 39 1
553 49 1
553 60 1
553 68 2
553 84 1
553 95 1
554 22 1
554 28 1
554 29 1
554 70 1
554 71 1
554 85 1
554 100 1
555 4 1
555 71 1
555 93 1
555 97 1
556 8 1
556 12 1
556 26 1
556 29 1
556 30 1
556 42 1
556 51 1
556 68 1
557 2 1
557 21 1
557 28 1
557 30 1
557 42 1
557 48 1
557 52 1
557 61 1
557 69 1
557 76 1
557 78 1
557 80 1
557 93 1
557 95 1
558 10 1
558 13 1
558 20 1
558 34 1
558 60 1
558 92 1
559 6 1
559 9 1
559 17 1
559 32 1
559 68 1
559 73 1
560 13 1
560 22 1
560 50 1
560 70 1
560 83 1
560 89 1
560 93 1
560 96 1
561 9 1
561 14 1
561 51 1
561 57 1
561 77 1
561 95 1
561 99 1
562 14 1
562 28 1
562 48 1
562 60 1
562 92 1
563 24 1
563 56 1
563 88 1
564 32 1
564 41 1
564 49 2
564 66 1
565 15 2
565 25 1
565 44 1
565 45 1
565 67 1
565 79 1
565 80 1
566 8 1
566 13 1
566 19 1
566 20 1
566 60 1
566 83 1
566 95 1
567 17 1
567 19 1
567 30 1
567 32 2
567 39 1
567 48 1
567 66 1
568 3 1
568 5 1
568 33 1
568 82 1
568 90 1
568 96 1
569 22 1
569 40 1
569 55 1
569 59 1
569 69 1
569 70 2
569 86 1
569 93 2
569 96 1
569 97 2
570 24 1
570 29 1
570 43 1
570 82 1
571 28 1
571 36 1
571 43 1
571 55 1
571 93 1
572 6 1
572 16 1
572 23 1
572 58 1
572 87 1
573 6 1
573 9 2
573 35 2
573 50 1
573 58 1
573 59 1
573 74 1
573 81 1
573 83 1
573 88 1
574 6 1
574 11 1
574 40 1
574 71 1
574 92 1
575 19 1
575 80 1
575 83 1
576 10 1
576 26 1
576 31 1
576 51 1
576 55 1
576 59 1
576 60 1
576 64 1
576 78 1
576 87 1
576 89 1
576 98 1
577 4 1
577 12 1
577 15 1
577 29 1
577 40 1
577 50 1
577 82 1
577 84 1
577 89 1
577 90 1
578 13 1
578 29 1
578 52 1
578 65 1
578 70 1
578 83 1
578 89 1
579 9 1
579 11 1
579 20 1
579 40 1
579 68 1
579 98 1
580 2 1
580 5 1
580 19 1
580 73 2
581 35 1
581 81 1
581 84 1
582 7 1
582 20 1
582 62 1
582 63 1
582 70 1
582 76 1
582 83 1
582 93 1
582 94 1
583 2 1
583 5 1
583 15 1
583 79 1
583 83 1
584 27 1
584 29 1
584 34 1
584 41 1
585 10 1
585 12 1
585 50 1
585 61 1
585 70 1
585 73 1
585 84 1
585 92 1
586 4 1
586 20 1
586 25 1
586 40 1
586 41 1
586 60 1
586 69 1
587 3 1
587 13 1
587 23 1
587 32 1
587 42 2
587 62 2
587 69 1
588 9 1
588 10 1
588 24 2
588 31 1
588 84 1
588 87 1
589 14 1
589 15 1
589 20 1
589 23 1
589 33 1
589 43 1
589 46 1
589 87 2
590 23 1
590 63 1
590 71 1
590 94 1
591 23 2
591 57 1
591 96 1
591 97 1
592 17 2
592 38 1
593 3 1
593 21 1
593 37 1
593 38 1
593 70 1
593 89 1
593 96 1
594 5 1
594 7 1
594 38 1
594 56 1
594 57 1
594 84 1
595 1 1
595 61 1
595 73 1
595 82 1
595 97 1
596 6 1
596 20 1
596 30 1
596 31 1
596 38 1
596 50 1
596 81 1
596 84 1
597 37 1
597 44 1
597 51 1
597 77 1
597 92 1
598 28 1
598 39 1
598 56 1
598 57 1
598 68 1
599 21 1
599 37 1
599 55 2
599 62 1
599 94 1
600 6 1
600 30 1
600 31 1
600 61 1
600 72 1
600 75 1
600 76 1
600 78 1
600 97 1
601 32 1
601 47 1
601 51 1
601 80 1
601 87 1
602 4 1
602 8 1
602 41 1
602 54 1
602 81 1
602 82 1
602 88 1
602 92 1
603 7 1
603 62 1
603 73 1
603 83 1
604 12 1
604 15 1
604 29 1
604 60 2
604 96 1
605 10 1
605 24 1
605 26 1
605 28 1
605 39 1
605 41 1
605 67 2
605 68 1
605 74 1
605 88 1
605 95 1
606 6 1
606 7 1
606 27 1
606 31 1
606 71 1
606 73 1
606 91 1
607 5 1
607 6 1
607 53 1
607 57 1
607 62 1
607 75 1
608 23 1
608 38 1
608 39 1
608 59 1
608 60 1
608 61 1
608 99 1
609 6 1
609 8 1
609 29 1
609 66 2
609 81 1
609 95 1
610 33 1
610 44 1
610 51 1
610 97 1
611 1 2
611 11 1
611 13 1
611 17 1
611 27 1
611 40 1
611 58 1
611 71 1
611 86 1
612 2 2
612 6 1
612 10 1
612 12 1
612 38 1
612 43 1
612 56 1
612 86 1
612 99 1
613 10 1
613 31 1
613 34 1
613 42 1
613 44 1
613 67 1
613 78 1
613 95 1
614 31 1
614 75 1
615 10 1
615 12 1
615 50 1
615 93 1
615 99 1
616 5 1
616 19 1
616 69 1
616 75 1
616 97 1
616 98 1
617 31 1
617 44 1
617 78 1
618 15 1
618 25 1
618 49 1
618 52 1
618 57 1
618 60 1
618 65 1
618 81 1
619 17 1
619 32 1
619 59 1
619 98 1
620 2 1
620 30 1
620 39 1
620 46 1
620 55 1
620 56 1
620 71 1
620 81 1
620 90 1
620 91 1
621 18 1
621 24 1
621 47 1
621 55 1
621 62 2
622 7 1
622 22 1
622 29 1
622 36 1
622 48 1
622 49 1
622 73 1
622 74 1
622 88 1
623 8 1
623 22 1
623 42 1
623 49 1
623 57 1
624 8 1
624 29 1
624 38 1
624 48 2
624 73 1
624 79 1
624 99 1
625 25 1
625 31 1
625 54 1
625 93 2
626 28 1
626 57 1
626 68 2
626 70 1
626 89 1
627 36 1
627 40 1
627 49 1
627 52 1
627 95 1
628 38 1
628 41 1
628 79 1
629 5 1
629 8 1
629 45 1
629 60 1
629 63 1
629 71 1
629 84 2
629 93 1
629 94 1
630 10 1
630 47 1
630 49 1
630 55 1
630 75 1
630 91 1
631 7 1
631 24 1
631 25 1
631 30 2
631 53 1
631 67 2
631 75 1
631 84 1
631 98 1
631 100 1
632 7 1
632 23 1
632 33 2
632 36 1
632 40 1
632 73 1
632 88 1
632 95 1
633 38 1
633 40 1
633 50 1
633 54 1
633 55 2
633 58 1
633 66 1
633 94 1
633 96 1
634 1 1
634 14 2
634 28 2
634 32 1
634 46 1
634 48 1
634 52 1
634 63 1
634 72 1
634 77 1
634 84 1
635 15 1
635 16 1
635 39 1
635 45 1
635 67 1
635 95 1
635 100 1
636 2 1
636 59 1
636 63 1
636 81 1
636 91 1
636 92 1
637 17 1
637 18 1
637 24 1
637 38 1
637 43 1
637 62 1
637 64 1
637 66 1
637 69 1
637 72 1
637 76 1
637 84 1
637 95 1
638 4 1
638 6 1
638 26 1
638 29 1
638 32 1
638 72 1
638 78 1
638 83 1
638 85 1
639 2 1
639 6 1
640 20 1
640 28 1
640 37 1
640 40 1
640 43 1
640 55 1
640 72 1
640 75 1
640 84 1
640 86 1
640 89 1
640 95 1
641 28 1
641 38 1
641 45 1
641 58 1
641 65 1
641 79 1
642 9 2
642 14 1
642 27 1
642 36 1
642 86 1
642 100 2
643 9 1
643 14 1
643 29 1
643 30 1
643 34 1
643 38 1
643 41 1
643 56 1
643 71 1
643 81 1
643 82 1
644 9 1
644 18 1
644 41 1
644 43 1
644 48 2
644 75 1
644 99 1
645 18 1
645 23 1
645 57 1
645 61 1
645 69 1
645 90 1
646 3 1
646 13 1
646 20 1
646 30 1
646 40 1
646 50 1
646 58 1
646 60 1
646 81 1
646 85 1
646 96 1
646 100 1
647 21 1
647 28 1
647 35 1
647 58 1
647 88 1
648 14 1
648 27 1
648 29 1
648 34 1
648 54 1
648 68 1
648 85 1
649 7 1
649 9 1
649 12 1
649 20 1
649 22 1
649 27 1
649 54 1
649 81 1
649 100 2
650 15 1
650 23 1
650 38 2
650 56 1
650 65 1
650 88 1
651 13 1
651 14 1
651 49 1
651 64 1
651 100 1
652 12 1
652 13 1
652 39 1
652 55 1
652 70 1
652 85 1
652 96 1
653 6 1
653 7 1
653 13 1
653 31 1
653 33 1
653 89 1
653 92 1
654 1 1
654 17 1
654 21 1
654 22 1
654 47 1
654 58 1
654 59 1
654 71 1
654 83 2
654 88 1
655 21 1
655 34 1
655 53 1
655 55 1
655 77 1
655 86 1
655 87 1
655 96 1
656 10 1
656 11 1
656 49 1
656 66 1
656 69 1
656 76 1
656 92 1
656 99 2
657 1 1
657 15 1
657 33 1
657 41 2
657 59 1
657 67 1
657 72 1
657 93 1
657 94 1
658 8 1
658 46 1
658 58 1
658 85 1
658 99 1
659 5 2
659 9 1
659 15 1
659 45 1
659 55 1
659 61 1
659 63 1
659 80 1
659 84 2
660 5 1
660 15 1
660 25 1
660 27 1
660 69 2
660 79 1
660 87 1
660 98 1
661 40 1
661 64 1
661 71 1
662 22 1
662 38 1
662 50 1
662 57 1
662 65 1
662 67 1
662 79 1
662 89 1
662 100 1
663 18 1
663 19 1
663 30 1
663 41 1
663 84 1
663 85 1
663 86 1
663 99 1
664 5 1
664 11 1
664 13 1
664 20 1
664 21 1
664 24 1
664 30 1
664 46 1
664 47 1
664 49 1
664 54 1
664 62 1
664 74 1
664 75 1
665 21 1
665 26 1
665 78 1
666 1 1
666 23 3
666 39 1
666 44 1
666 50 1
666 69 1
666 79 1
666 81 1
666 85 1
667 28 1
667 33 2
667 41 1
667 67 1
667 73 1
667 90 1
667 96 1
668 1 1
668 25 1
668 50 1
668 59 1
668 72 1
668 75 1
669 41 2
669 59 1
669 82 2
670 1 1
670 27 1
670 58 1
670 74 1
670 82 1
671 17 1
671 38 1
671 44 1
671 68 1
671 89 1
671 95 1
671 100 1
672 41 1
672 45 1
672 61 1
672 89 1
673 7 1
673 28 1
673 64 3
673 68 1
673 81 1
673 90 1
673 93 1
674 9 1
674 10 1
674 15 1
674 53 1
674 57 1
675 11 1
675 26 2
675 33 2
675 43 1
675 69 1
675 76 1
676 34 1
676 38 1
676 50 1
676 60 1
676 76 1
676 96 1
676 98 2
677 20 1
677 78 1
677 83 1
677 91 2
678 14 1
678 22 1
678 34 1
678 38 1
678 48 1
678 64 1
678 67 1
678 75 1
678 85 2
678 93 1
679 1 1
679 5 1
679 6 1
679 16 2
679 66 1
679 69 1
679 82 1
679 88 2
679 93 1
679 94 1
680 4 1
680 6 1
680 25 1
680 31 1
681 6 1
681 42 1
681 58 1
681 66 1
681 94 1
681 96 1
682 1 1
682 12 1
682 46 1
682 74 1
682 87 1
682 94 1
683 4 1
683 5 1
683 26 1
683 32 1
683 36 1
683 52 1
683 60 1
683 61 1
683 65 1
683 67 1
683 76 1
683 82 1
683 83 1
683 94 1
684 13 1
684 51 1
684 57 1
684 58 1
684 65 1
684 66 1
684 79 1
685 3 1
685 61 1
685 81 1
686 3 1
686 20 1
686 30 1
686 32 1
686 37 1
686 50 2
686 58 1
686 71 1
686 76 1
686 83 1
686 95 1
687 6 1
687 9 1
687 47 1
687 60 1
687 81 1
688 12 1
688 22 1
688 34 1
688 36 1
688 40 1
688 48 3
688 53 1
688 57 1
688 89 1
689 35 1
689 42 1
689 51 1
689 77 1
689 98 1
690 4 1
690 9 1
690 16 1
690 42 1
690 43 1
690 47 1
690 64 1
690 69 1
690 72 1
691 17 1
691 22 1
691 42 1
691 52 1
691 53 1
691 54 1
691 72 1
691 88 1
691 97 1
691 99 2
692 39 1
692 62 1
692 99 2
693 15 1
693 51 1
693 77 1
694 48 1
694 73 2
694 81 1
694 89 1
695 8 1
695 9 1
695 31 1
695 39 1
695 62 1
695 65 1
695 89 1
696 8 1
696 25 1
696 36 1
696 46 1
696 54 2
696 66 1
696 73 1
696 100 1
697 35 1
697 42 1
697 50 1
697 58 1
697 72 1
697 75 1
697 76 2
697 83 1
698 29 1
698 35 1
698 65 1
698 81 1
698 89 1
699 59 1
699 68 1
699 70 1
699 87 1
699 99 1
700 4 1
700 37 1
700 45 1
700 65 1
700 75 1
701 12 1
701 29 1
701 67 1
701 69 1
701 94 1
702 46 1
702 70 1
703 14 1
703 33 2
703 41 2
703 44 2
703 75 1
703 92 1
704 1 1
704 18 1
704 66 1
704 78 1
704 81 1
705 3 1
705 17 1
705 20 3
705 26 1
705 36 1
705 42 1
705 63 1
705 79 1
705 80 1
705 94 1
705 97 1
706 7 1
706 25 1
706 35 1
706 36 3
706 69 1
706 86 1
706 91 1
706 94 1
707 9 1
707 13 1
707 58 1
707 68 1
707 77 1
707 84 1
707 89 1
707 92 1
708 37 2
708 43 1
708 59 1
708 69 1
708 84 1
708 86 2
709 15 1
709 32 1
709 35 1
709 36 1
709 40 1
709 42 1
709 63 1
709 88 1
709 91 1
710 5 1
710 7 1
710 12 1
710 15 1
710 26 1
710 37 1
710 92 1
711 4 1
711 28 1
711 36 1
711 49 1
711 75 1
711 77 1
711 81 1
711 85 1
711 91 1
711 92 2
711 97 2
712 5 1
712 9 1
712 33 1
712 38 1
712 47 1
712 61 1
712 69 1
712 90 1
712 92 1
712 96 1
712 99 1
713 5 1
713 11 1
713 25 1
713 34 1
713 53 1
713 91 1
714 1 1
714 34 1
714 53 1
714 58 1
714 61 1
714 91 1
715 40 1
715 48 1
715 50 1
715 64 1
715 66 1
715 69 1
715 73 1
715 74 1
715 81 1
715 98 1
716 35 1
716 53 1
716 60 1
716 62 1
716 69 1
717 4 1
717 27 1
717 29 1
717 43 1
717 50 1
717 56 1
717 92 1
718 17 2
718 23 1
718 33 1
718 35 1
719 33 1
719 46 1
719 49 1
719 92 1
719 93 1
720 7 1
720 31 2
720 41 1
720 48 1
720 55 1
720 69 1
720 73 1
720 82 1
720 90 1
721 1 1
721 45 1
722 12 1
722 15 1
722 17 1
722 29 1
722 74 1
722 95 1
722 98 1
723 9 1
723 15 1
723 40 1
723 46 1
723 51 1
723 87 1
723 88 1
724 1 1
724 19 1
724 93 1
724 98 1
725 28 1
725 31 1
725 37 1
725 68 1
725 69 1
725 77 1
725 88 1
725 98 1
725 100 1
726 5 1
726 22 2
726 53 1
726 60 1
726 65 1
726 85 1
726 95 2
727 32 1
727 64 1
728 9 1
728 19 1
728 20 1
728 39 1
728 72 1
728 74 1
728 77 1
728 85 1
728 94 2
729 6 1
729 15 1
729 38 1
729 45 1
729 52 1
729 55 1
729 65 1
729 66 1
729 93 1
729 98 1
730 32 1
730 38 1
730 43 1
730 54 1
730 67 2
730 83 1
730 93 1
731 16 1
731 34 1
731 39 1
731 49 2
731 52 1
731 55 1
731 56 1
731 58 1
731 62 1
731 75 1
732 24 1
732 26 1
732 31 1
732 44 1
732 51 1
732 71 2
732 74 1
732 77 1
732 90 1
732 94 1
733 6 1
733 11 1
733 14 2
733 15 1
733 24 1
733 26 1
733 28 1
733 34 1
733 57 1
733 92 1
733 100 1
734 16 1
734 25 1
734 26 1
734 37 1
734 61 1
734 63 1
734 72 1
734 75 1
734 92 1
735 2 1
735 6 1
735 10 1
735 28 1
735 32 1
735 56 1
735 78 1
735 85 1
736 60 1
736 68 1
736 74 1
737 61 1
737 67 1
737 72 1
737 81 1
738 6 1
738 12 1
738 16 1
738 17 1
738 25 1
738 36 1
738 63 1
738 80 2
739 10 1
739 19 2
739 23 1
739 46 1
739 52 1
739 57 1
739 74 1
739 93 1
740 11 1
740 50 1
740 70 1
740 73 1
740 82 1
740 99 1
741 6 1
741 20 1
741 24 1
741 54 1
741 61 1
741 97 1
742 4 1
742 8 1
742 9 1
742 38 1
742 60 1
742 82 1
742 92 1
742 93 1
743 14 1
743 24 1
743 29 1
744 7 1
744 37 2
744 52 1
744 56 1
744 62 1
744 69 1
744 71 1
744 85 1
744 89 1
744 96 1
744 100 2
745 3 2
745 12 1
745 51 1
745 68 1
745 82 1
745 88 1
745 90 1
746 11 1
746 17 1
746 44 1
746 73 1
746 81 2
747 21 1
747 51 1
747 81 1
747 94 1
747 95 1
747 99 1
747 100 1
748 14 1
748 30 1
748 39 1
748 43 1
748 48 1
748 54 1
748 69 1
748 74 1
748 85 1
748 89 1
749 7 1
749 26 1
749 32 1
749 60 1
749 78 1
750 22 1
750 33 1
750 35 1
750 39 1
750 60 1
750 96 1
750 100 1
751 5 1
751 6 1
751 13 1
751 19 1
751 28 2
751 29 1
751 33 1
751 38 1
751 44 1
751 47 1
751 71 1
751 76 1
751 79 2
751 89 1
752 6 1
752 25 1
752 31 1
752 61 1
753 42 1
753 58 2
753 59 1
753 66 1
753 71 1
753 74 1
753 98 1
753 99 1
754 2 1
754 12 1
754 38 1
754 57 1
754 72 1
754 93 1
755 11 1
755 18 1
755 29 1
755 65 1
755 83 1
756 42 1
756 61 1
756 62 1
756 65 1
756 82 2
756 91 1
757 12 1
757 14 1
757 44 1
757 47 1
757 54 1
757 55 1
757 68 1
757 97 1
757 100 1
758 12 1
758 39 1
758 50 1
758 52 1
758 72 1
758 73 1
758 76 1
758 78 1
758 90 1
758 93 1
758 98 2
759 13 1
759 14 1
759 20 1
759 41 1
759 57 1
759 74 1
759 90 1
760 8 1
760 41 1
760 47 1
760 54 1
760 71 1
761 5 1
761 53 1
761 71 1
761 80 1
761 98 1
762 8 1
762 61 1
762 83 1
763 45 1
763 53 1
763 59 1
763 65 1
763 93 1
764 6 1
764 17 1
764 18 1
764 45 1
764 62 1
764 70 1
764 74 1
764 85 2
764 90 1
765 9 1
765 31 1
765 38 1
765 44 1
765 64 1
766 41 1
766 88 1
766 89 1
767 1 1
767 6 1
767 8 1
767 10 1
767 16 1
767 23 1
767 35 1
767 43 1
767 44 1
767 52 1
767 79 1
767 87 1
767 93 1
768 9 1
768 33 1
768 36 1
768 54 1
768 59 1
768 64 1
768 69 1
768 97 1
769 6 1
769 15 1
769 56 1
769 74 1
769 79 1
770 24 1
770 55 1
770 91 1
770 92 1
771 10 1
771 38 1
771 51 1
771 61 1
771 65 1
772 2 1
772 42 1
772 63 1
772 85 1
772 88 1
772 91 1
773 25 1
773 27 2
773 37 1
773 40 1
773 61 1
773 77 1
773 80 2
773 84 1
774 4 1
774 11 1
774 21 1
774 23 1
774 67 1
774 82 1
774 83 1
774 85 1
774 89 1
775 7 1
775 31 1
775 36 1
775 84 1
776 33 1
776 56 1
776 77 1
776 92 1
777 27 2
777 30 1
777 36 1
777 46 1
777 62 1
777 72 1
777 83 1
777 91 1
777 95 1
778 12 1
778 13 1
778 18 2
778 36 1
778 37 1
778 65 1
778 73 1
778 87 1
779 3 1
779 14 1
779 16 1
779 62 1
779 73 1
780 36 1
780 45 1
780 50 1
780 99 1
781 2 1
781 30 1
781 31 1
781 36 1
781 47 1
782 14 1
782 25 1
782 27 1
782 34 1
782 46 1
782 69 1
782 88 1
782 97 1
783 10 1
783 14 1
783 26 1
783 52 1
783 63 1
783 95 1
784 18 2
784 24 1
784 27 1
784 30 1
784 38 1
784 48 1
784 69 1
784 71 1
784 77 1
784 80 1
785 1 1
785 3 1
785 6 1
785 30 1
785 36 1
785 52 1
785 89 1
786 1 1
786 53 2
786 66 1
786 84 1
786 85 1
787 6 1
787 7 1
787 20 1
787 22 2
787 78 1
787 89 1
787 95 1
788 25 1
788 51 1
788 57 1
788 99 1
789 2 1
789 4 1
789 12 1
789 58 2
790 12 1
790 35 1
790 44 1
790 90 2
791 25 1
791 40 1
791 47 1
791 61 1
791 73 1
791 91 1
791 92 1
791 93 1
792 1 1
792 12 1
792 40 1
792 53 1
792 54 1
792 55 1
792 62 1
792 85 1
792 89 1
793 9 1
793 39 1
793 44 1
793 69 1
793 86 1
793 88 1
793 95 1
794 15 1
794 59 1
794 64 1
794 69 1
794 85 1
794 86 1
794 96 1
795 4 1
795 15 1
795 25 1
795 29 1
795 40 1
795 66 2
795 74 1
795 88 1
796 36 1
796 63 1
796 98 1
797 3 1
797 8 1
797 30 1
797 45 1
797 61 1
797 74 1
797 83 1
797 89 1
797 95 1
798 24 1
798 52 1
798 64 1
799 19 1
799 20 1
799 59 1
799 75 1
799 81 1
799 84 1
799 86 1
799 88 1
800 4 1
800 17 1
800 23 1
800 28 1
800 80 1
800 91 1
800 100 1
801 7 1
801 15 1
801 22 1
801 23 1
801 32 1
801 35 1
801 40 1
801 50 1
801 86 1
801 100 1
802 32 1
802 34 1
802 49 1
802 54 1
802 59 1
802 70 2
802 73 1
802 76 1
802 86 1
803 32 1
803 33 1
803 34 1
803 65 1
803 69 1
803 74 1
803 79 1
803 81 1
803 99 2
804 5 1
804 9 1
804 22 1
804 25 1
804 37 1
804 62 1
804 66 1
804 73 1
804 74 1
804 77 1
804 82 1
804 99 1
805 21 1
805 38 1
805 45 1
805 48 1
805 59 1
805 80 2
805 84 1
805 91 1
805 97 1
805 98 1
805 99 1
806 15 1
806 67 1
806 100 1
807 59 2
807 64 1
807 69 2
807 89 1
807 95 1
808 26 1
808 40 1
808 44 1
808 49 1
808 52 1
808 56 1
808 62 1
808 71 1
808 85 1
808 91 1
809 1 1
809 17 1
809 18 1
809 57 1
809 58 1
809 62 1
809 67 1
810 17 1
810 35 1
810 80 1
810 86 1
810 96 1
811 7 1
811 19 1
811 22 1
811 55 1
811 64 1
811 75 1
811 76 1
811 86 1
811 96 1
811 97 1
812 4 2
812 19 1
812 22 1
812 52 1
812 92 1
812 94 1
813 21 1
813 50 1
813 53 1
813 56 1
813 75 1
813 84 1
813 89 1
813 97 1
814 1 1
814 8 1
814 10 1
814 29 1
814 31 1
814 76 1
814 99 1
815 62 1
816 5 1
816 8 1
816 31 1
816 34 1
816 74 2
816 83 1
817 1 2
817 26 1
817 38 1
817 46 1
817 63 1
817 71 1
817 72 2
817 98 1
818 9 1
818 24 1
818 33 1
818 35 1
818 40 1
818 59 1
818 65 1
818 99 1
819 10 1
819 62 1
819 70 1
819 94 1
820 19 1
820 40 1
820 46 1
820 47 1
820 50 2
820 55 1
820 99 1
821 7 1
821 17 1
821 25 1
821 26 1
821 34 1
821 37 1
821 43 1
821 99 1
822 20 1
822 32 1
822 47 1
822 51 1
822 63 1
822 73 1
822 76 1
822 94 1
822 95 1
823 3 1
823 32 1
823 48 1
823 53 1
823 60 1
823 68 1
823 70 1
823 74 1
823 90 1
823 95 1
824 33 1
824 34 1
824 56 1
824 65 1
824 81 1
824 88 1
824 95 2
825 71 1
825 72 1
825 73 1
826 11 2
826 54 1
826 57 1
827 8 1
827 18 1
827 23 1
827 49 1
827 53 1
827 62 2
827 65 1
827 96 1
828 8 1
828 47 1
828 50 1
828 57 1
828 62 1
828 64 1
828 70 1
828 80 1
829 40 1
829 63 1
829 70 2
829 72 1
829 93 1
830 12 1
830 26 1
830 39 1
830 46 1
830 50 1
830 53 1
830 58 1
830 96 1
831 12 1
831 13 1
831 15 1
831 25 2
831 41 1
831 69 1
832 4 1
832 23 1
832 41 1
832 46 2
832 63 1
832 67 1
832 88 1
833 7 1
833 8 1
833 10 1
833 24 1
833 50 1
833 68 1
833 72 2
833 77 1
833 85 1
833 89 1
833 90 1
834 15 1
834 16 1
834 24 1
834 33 1
834 48 1
834 58 1
834 62 1
834 70 1
834 76 1
834 98 1
835 2 1
835 3 1
835 15 1
835 21 2
835 27 1
835 42 1
836 10 1
836 47 1
836 70 1
836 79 1
836 85 1
836 88 1
836 89 1
837 7 1
837 44 1
837 48 2
837 66 1
837 71 1
838 2 1
838 17 1
838 25 1
838 36 1
838 76 1
838 79 1
838 84 1
839 7 1
839 12 1
839 95 1
840 7 1
840 22 1
840 35 1
840 56 1
840 76 1
840 78 1
841 36 1
841 56 1
841 66 1
841 95 1
842 4 1
842 54 1
842 59 1
842 67 1
842 87 1
843 9 1
843 33 1
843 71 1
843 74 1
843 88 1
843 97 1
844 18 1
844 41 1
844 47 1
844 48 1
844 52 1
844 63 1
844 71 1
844 96 1
845 4 2
845 7 1
845 15 1
845 41 1
845 45 1
845 69 1
846 14 1
846 16 1
846 41 1
846 44 1
846 59 1
846 82 1
846 83 1
846 92 1
846 95 1
846 98 1
847 22 1
847 30 1
847 38 1
847 82 1
848 8 1
848 53 1
848 78 1
849 24 1
849 45 1
849 63 1
849 72 1
849 90 1
850 18 1
850 23 1
850 37 1
850 57 1
850 84 1
850 88 2
850 90 1
851 7 2
851 15 1
851 28 1
851 32 1
851 47 1
851 65 1
851 84 1
852 16 1
852 20 1
852 32 1
852 35 1
852 37 1
852 60 1
852 90 1
853 1 2
853 48 1
853 57 1
853 69 1
853 73 1
854 4 1
854 17 1
854 28 1
854 33 1
854 37 1
854 41 1
854 44 1
854 45 1
854 77 2
854 95 1
855 8 1
855 11 1
855 12 1
855 25 1
855 26 1
855 27 1
855 28 1
855 29 1
855 75 1
855 78 1
855 100 1
856 2 1
856 3 1
856 10 1
856 21 1
856 22 1
856 37 1
856 48 1
856 51 1
856 66 1
856 69 1
856 97 1
857 23 1
857 25 2
857 38 1
857 47 1
857 65 1
857 71 1
857 95 1
858 5 1
858 12 1
858 14 1
858 20 3
858 28 1
858 33 1
858 49 1
858 64 2
858 97 1
859 12 1
859 20 1
859 27 1
859 44 1
859 87 1
860 24 1
860 36 1
860 41 1
860 46 1
860 55 1
860 71 1
860 79 1
860 99 1
861 15 1
861 28 2
861 42 1
861 46 1
861 56 1
861 60 1
861 61 1
861 77 1
861 81 1
861 93 1
862 26 1
862 65 1
862 76 1
862 79 1
862 81 1
863 38 1
863 46 1
863 51 1
863 53 1
863 55 1
863 74 1
863 75 1
864 15 1
864 31 1
864 34 2
864 40 1
864 64 1
864 71 1
864 94 1
864 98 1
865 1 1
865 6 1
865 25 1
865 41 1
865 46 1
865 47 1
865 89 1
866 29 3
866 45 1
866 72 2
866 73 1
866 98 1
867 3 1
867 36 1
867 74 2
867 78 1
868 37 1
868 50 1
868 87 1
869 7 1
869 49 1
869 58 1
869 62 1
869 78 1
869 83 1
869 87 1
869 97 1
870 20 1
870 28 1
870 30 1
870 80 1
870 86 1
871 2 1
871 23 1
871 42 1
871 49 1
871 67 1
871 70 1
871 84 1
871 87 1
871 90 1
872 6 2
872 37 1
872 47 1
872 54 1
872 74 1
872 79 1
873 9 1
873 12 1
873 14 1
873 18 1
873 22 1
873 34 1
873 42 1
873 79 1
873 93 1
873 95 2
874 19 1
874 20 1
874 21 1
874 37 1
874 50 1
874 55 1
874 88 1
874 100 1
875 30 1
875 47 1
875 69 1
875 70 1
875 89 1
876 41 1
876 79 1
876 90 1
877 22 1
877 49 1
877 80 1
877 88 1
878 4 1
878 27 1
878 53 1
878 65 1
878 69 1
878 70 1
878 77 1
878 79 1
879 5 1
879 11 2
879 25 2
879 67 1
879 71 1
879 80 1
879 92 1
880 32 1
880 36 2
880 52 1
880 70 2
880 79 1
880 91 1
880 98 1
881 4 1
881 7 1
881 11 1
881 22 1
881 27 1
881 28 1
881 29 1
881 33 1
881 41 1
881 53 1
881 60 1
882 8 1
882 17 1
882 32 1
882 62 1
882 80 1
882 86 1
882 99 1
883 8 1
883 27 1
883 35 1
884 3 1
884 8 1
884 13 1
884 16 1
884 17 1
884 50 1
884 51 1
884 67 1
884 79 1
884 98 1
885 14 1
885 32 1
885 47 1
885 58 1
885 64 1
885 82 1
885 86 1
886 17 1
886 18 1
886 35 1
886 45 1
886 65 1
886 66 1
886 71 1
886 93 1
887 6 1
887 16 1
887 23 1
887 61 1
887 72 1
888 25 1
888 39 1
888 43 1
888 58 1
888 83 1
889 7 1
889 10 1
889 20 1
889 28 1
889 34 1
889 40 1
889 62 1
889 78 1
889 79 1
890 16 1
890 21 1
890 29 1
890 42 1
890 79 1
890 83 1
890 94 1
891 28 1
891 33 1
891 34 2
891 39 1
891 69 1
891 91 1
891 99 1
892 3 1
892 31 1
892 33 1
892 51 1
892 58 1
893 30 1
893 39 1
893 40 1
894 22 1
894 37 1
894 48 1
894 71 1
894 79 1
895 23 2
895 26 1
895 29 1
895 46 1
895 81 1
895 91 1
895 100 1
896 36 2
896 54 1
896 78 1
896 97 1
897 13 1
897 18 1
897 23 1
897 24 1
897 25 1
897 51 1
897 61 1
897 88 1
898 25 1
898 58 2
898 65 1
898 78 1
898 83 1
898 100 1
899 3 1
899 25 1
899 38 2
900 20 1
900 40 1
900 53 1
900 57 1
900 64 2
900 68 1
900 70 1
900 73 1
901 50 1
901 58 1
901 62 1
901 64 1
901 70 1
901 72 1
901 84 1
901 88 1
901 97 2
902 7 1
902 11 1
902 21 1
902 54 1
902 63 1
902 65 1
902 81 2
902 82 1
903 1 2
903 12 1
903 25 1
903 40 1
903 50 1
903 52 1
903 73 1
903 77 1
904 3 1
904 5 1
904 19 1
904 34 1
904 51 1
904 55 1
904 57 1
904 64 1
904 69 1
904 75 1
904 94 1
904 99 1
905 4 1
905 30 1
905 35 1
905 36 1
905 52 1
905 60 1
905 65 1
905 66 1
905 68 1
905 74 1
905 83 1
906 4 1
906 33 1
906 36 1
906 42 1
906 43 2
906 54 1
906 59 2
906 87 1
906 96 1
907 20 1
907 21 1
907 23 1
907 29 1
907 35 1
907 56 1
907 59 2
907 68 1
907 75 1
907 88 1
908 13 1
908 20 1
908 26 1
908 38 1
908 54 1
908 87 1
909 27 1
909 86 1
909 91 1
910 31 1
910 42 1
910 54 1
910 62 1
910 68 1
910 79 1
910 92 1
911 5 1
911 17 1
911 51 1
911 52 1
911 60 1
911 68 1
911 79 1
912 18 1
912 30 1
912 77 1
912 85 1
912 87 1
912 92 1
912 96 1
913 6 1
913 33 1
913 39 1
913 48 2
913 64 1
913 70 1
913 93 1
913 99 1
914 2 1
914 3 1
914 30 1
914 52 1
914 71 1
914 76 1
914 96 1
915 10 1
915 12 1
915 35 1
915 37 1
915 41 1
915 42 1
915 65 1
915 97 1
916 32 1
916 69 1
916 73 1
917 35 1
917 66 1
917 80 1
917 81 1
917 83 1
917 84 1
917 90 1
917 99 1
918 11 1
918 29 1
918 61 1
918 80 1
918 84 1
918 90 1
918 95 1
918 98 1
918 100 1
919 9 1
919 14 1
919 16 1
919 17 2
919 20 1
919 54 1
919 57 1
919 58 1
919 95 1
920 1 1
920 22 1
920 32 1
920 42 1
920 51 1
920 53 2
920 59 1
920 68 1
920 84 1
921 34 1
921 43 1
921 66 1
921 67 1
921 79 1
921 85 1
921 91 1
921 98 1
921 99 1
922 12 3
922 53 1
922 87 1
923 20 1
923 21 1
923 30 1
923 45 2
923 81 2
923 85 4
923 86 2
923 98 1
924 9 1
924 15 1
924 16 1
924 42 1
924 61 1
924 62 1
924 82 1
924 87 1
924 90 1
925 44 1
925 60 1
925 63 1
925 71 1
925 82 1
925 90 1
925 92 2
926 28 1
926 42 1
926 53 1
926 62 1
926 78 1
926 82 2
926 100 1
927 11 1
927 25 1
927 38 1
927 54 2
927 70 1
928 7 1
928 44 1
928 51 1
928 72 1
928 73 1
928 75 1
929 8 1
929 14 1
929 20 1
929 27 1
929 32 1
930 6 1
930 8 1
930 13 1
930 32 1
930 51 1
930 73 1
930 98 1
930 99 1
931 7 2
931 8 1
931 16 1
931 24 1
931 26 1
931 34 1
931 44 1
931 54 1
931 95 2
931 97 1
931 98 1
931 100 2
932 6 1
932 26 1
932 41 1
932 80 1
932 92 1
933 2 1
933 6 1
933 10 1
933 21 1
933 50 1
933 55 1
933 64 1
933 77 1
933 81 1
933 91 1
934 5 1
934 19 1
934 28 1
934 43 1
934 48 1
934 57 1
935 9 1
935 26 1
935 27 1
935 36 1
935 37 1
935 43 1
935 50 1
935 74 1
935 76 1
935 78 1
936 20 1
936 27 1
936 28 1
936 44 2
936 45 1
936 59 1
936 97 1
936 98 1
937 28 1
937 58 1
937 81 1
937 83 1
937 89 1
937 94 1
937 95 1
938 8 1
938 17 1
938 62 1
938 63 1
938 67 1
938 95 1
939 12 1
939 32 1
939 77 1
939 82 1
939 87 1
939 93 1
940 1 1
940 26 1
940 45 1
940 67 1
941 19 1
941 21 2
941 26 1
941 35 1
941 61 1
941 63 1
941 68 1
941 72 1
941 91 1
942 13 1
942 23 1
942 24 1
942 39 1
942 41 1
942 85 1
943 18 1
943 19 1
943 79 1
943 95 1
944 5 1
944 10 1
944 17 1
944 39 1
944 41 1
944 43 1
944 61 1
944 69 1
944 84 2
944 86 1
945 17 1
945 21 1
945 23 1
945 39 1
945 42 1
945 45 1
945 58 1
945 79 1
945 82 1
945 90 1
945 99 1
946 4 1
946 9 1
946 69 1
946 77 1
947 1 1
947 10 1
947 12 1
947 57 2
947 73 1
947 92 1
947 94 1
948 19 1
948 22 1
948 50 1
948 51 1
948 52 1
948 53 1
948 59 1
948 65 1
948 69 1
948 86 1
948 99 2
949 5 1
949 41 2
949 54 1
949 58 1
949 79 1
950 1 1
950 31 1
950 43 1
950 55 1
950 61 1
950 64 1
950 69 1
950 89 1
951 29 1
951 33 1
951 34 1
951 43 1
952 16 1
952 19 1
952 28 1
952 35 1
952 61 1
952 72 1
953 23 1
953 33 1
953 39 1
953 97 1
954 13 1
954 30 2
954 40 1
954 57 1
954 85 1
954 93 1
955 7 1
955 11 1
955 14 1
955 31 1
955 35 1
955 59 1
955 67 1
955 73 1
956 6 1
956 11 1
956 40 1
956 46 1
956 50 1
956 60 1
956 63 1
956 88 1
957 11 1
957 29 1
957 49 1
957 50 1
957 61 1
957 83 1
958 2 1
958 12 1
958 44 1
959 5 1
959 10 1
959 29 1
959 58 1
959 61 1
959 78 2
960 14 1
960 16 1
960 31 1
960 46 1
960 47 1
960 50 1
960 62 1
960 77 1
960 88 1
961 1 1
961 12 1
961 21 1
961 25 1
961 28 1
961 68 1
961 73 1
961 74 1
962 3 1
962 7 1
962 24 1
962 27 1
962 37 1
962 42 1
962 50 1
962 59 1
962 61 1
962 64 1
962 66 1
962 71 1
963 9 2
963 16 1
963 20 1
963 22 1
963 34 2
963 49 1
963 85 1
963 86 1
964 21 1
964 28 1
964 34 1
964 35 2
964 85 1
965 32 1
965 36 1
965 61 1
965 71 1
965 82 1
965 84 1
966 8 1
967 2 1
967 30 1
967 62 1
967 79 1
967 82 1
967 89 1
967 90 1
967 97 1
968 2 1
968 9 1
968 31 1
968 37 2
968 51 1
968 52 1
968 63 1
968 85 1
969 11 1
969 19 2
969 39 1
969 44 1
969 56 1
969 81 1
970 21 1
970 25 1
970 29 1
970 50 1
970 58 2
970 69 1
971 20 1
971 34 1
971 66 1
971 86 1
971 87 1
972 10 1
972 19 1
972 32 1
972 37 1
972 40 1
972 94 1
972 99 1
973 7 1
973 11 1
973 48 1
973 83 1
973 97 1
974 1 1
974 2 1
974 12 1
974 28 1
974 33 1
974 36 1
974 52 1
974 65 1
974 99 2
975 16 1
975 39 1
975 63 2
975 92 1
975 93 1
976 17 1
976 39 1
976 59 1
976 64 1
976 69 1
976 71 1
976 77 1
976 90 1
976 92 1
977 1 1
977 3 1
977 6 1
977 49 1
978 15 1
978 20 1
978 32 1
978 47 1
978 54 1
978 64 1
978 97 1
979 25 1
979 33 1
979 57 1
979 77 1
979 84 1
980 7 1
980 10 1
980 14 1
980 28 1
980 39 1
980 43 1
980 47 1
980 61 1
980 62 1
980 72 1
980 77 1
980 86 1
981 19 1
981 28 1
981 33 1
981 35 1
981 37 1
981 43 1
981 44 1
981 51 3
981 97 1
982 5 1
982 32 1
982 38 1
982 67 1
982 94 1
982 100 2
983 38 1
983 41 1
983 42 1
983 43 1
983 52 1
983 55 1
983 59 2
983 69 1
983 72 1
983 75 1
983 93 1
983 95 1
984 17 1
984 36 1
984 56 1
984 71 1
984 90 1
984 93 1
984 97 1
984 100 1
985 5 1
985 41 1
985 44 1
985 64 1
985 67 1
985 93 1
985 96 1
986 14 1
986 25 1
986 53 1
987 3 1
987 14 1
987 36 1
987 52 1
987 66 1
987 67 1
987 74 1
987 79 1
988 27 1
988 28 1
988 58 1
988 68 1
988 77 1
988 80 1
988 92 1
989 17 1
989 23 1
989 29 1
989 47 1
989 52 1
989 61 1
989 67 2
989 69 1
990 1 1
990 33 1
990 48 1
990 81 1
990 99 1
991 29 1
991 31 2
991 34 1
991 96 1
991 98 1
992 7 1
992 15 1
992 25 2
992 47 1
992 52 1
992 56 1
992 80 1
992 86 1
993 10 1
993 15 1
993 40 1
993 64 1
993 65 1
993 76 1
993 85 1
993 88 1
994 5 1
994 38 1
994 40 1
994 100 1
995 5 1
995 46 1
995 59 1
995 60 1
995 62 1
995 83 1
995 85 3
995 96 1
996 1 1
996 6 1
996 7 1
996 12 1
996 50 1
996 54 2
996 59 1
996 74 1
996 83 1
996 93 1
996 99 1
997 10 1
997 18 1
997 26 1
997 28 1
997 50 1
997 80 1
997 93 1
997 97 1
998 29 1
998 34 1
998 66 1
998 87 1
998 89 1
998 92 2
998 93 1
999 6 1
999 37 2
999 39 1
999 41 1
999 50 1
999 53 2
999 55 1
999 64 1
999 73 1
999 93 1
999 95 1
1000 3 1
1000 5 1
1000 24 1
1000 44 1
1000 52 1
1000 74 1
1000 84 1
1000 92 1
