%%MatrixMarket matrix coordinate integer general
%
1000	200	22582
1 1 6
1 4 11
1 6 12
1 7 11
1 9 6
1 12 9
1 13 7
1 14 9
1 16 10
1 20 12
1 21 7
1 22 4
1 25 4
1 27 12
1 29 1
1 31 15
1 34 7
1 35 8
1 36 1
1 37 12
1 38 9
1 39 4
1 40 6
1 41 4
1 43 2
1 46 6
1 47 11
1 48 8
1 49 8
1 51 1
1 53 1
1 56 11
1 57 3
1 59 8
1 61 2
1 62 10
1 63 4
1 64 2
1 68 10
1 69 8
1 76 9
1 77 9
1 78 9
1 79 5
1 80 1
1 82 8
1 84 5
1 85 12
1 86 10
1 87 2
1 88 1
1 89 14
1 93 1
1 94 7
1 95 9
1 96 5
1 97 1
1 98 10
1 99 1
1 100 22
1 104 6
1 105 10
1 106 9
1 107 12
1 111 9
1 112 1
1 113 1
1 115 10
1 116 6
1 117 3
1 120 6
1 121 13
1 122 7
1 123 6
1 126 8
1 128 9
1 131 6
1 133 7
1 135 8
1 137 9
1 138 11
1 139 6
1 140 2
1 142 10
1 143 5
1 147 1
1 151 6
1 152 5
1 153 6
1 155 2
1 157 10
1 158 3
1 160 1
1 161 1
1 162 10
1 163 11
1 165 1
1 171 1
1 172 1
1 174 1
1 175 6
1 177 1
1 181 4
1 184 1
1 185 1
1 186 7
1 188 13
1 189 10
1 190 6
1 191 10
1 193 15
1 195 13
1 198 1
1 200 8
2 1 3
2 4 8
2 5 1
2 6 7
2 7 4
2 9 19
2 10 2
2 11 1
2 12 13
2 13 7
2 14 9
2 16 10
2 19 1
2 20 6
2 21 10
2 22 4
2 23 1
2 25 7
2 27 5
2 31 4
2 33 1
2 34 10
2 35 8
2 37 8
2 38 10
2 39 12
2 40 13
2 41 9
2 46 12
2 47 5
2 48 6
2 49 6
2 50 3
2 51 1
2 52 2
2 56 5
2 57 5
2 59 7
2 62 7
2 63 9
2 66 1
2 68 12
2 69 2
2 70 1
2 71 1
2 75 1
2 76 11
2 77 6
2 78 9
2 79 7
2 82 10
2 84 12
2 85 9
2 86 10
2 89 6
2 92 1
2 94 5
2 95 6
2 96 5
2 98 7
2 99 1
2 100 12
2 103 1
2 104 12
2 105 11
2 106 6
2 107 11
2 111 8
2 112 1
2 115 11
2 116 6
2 117 14
2 120 11
2 121 10
2 122 14
2 123 11
2 126 7
2 128 10
2 131 8
2 133 7
2 135 8
2 137 5
2 138 9
2 139 10
2 142 9
2 143 4
2 144 1
2 147 1
2 149 2
2 150 1
2 151 14
2 152 6
2 153 6
2 157 4
2 158 1
2 161 1
2 162 10
2 163 2
2 166 2
2 175 10
2 180 1
2 181 9
2 186 11
2 188 16
2 189 9
2 190 17
2 191 10
2 193 9
2 194 1
2 195 9
2 200 10
3 1 8
3 3 1
3 4 11
3 6 15
3 7 11
3 8 1
3 9 3
3 11 1
3 12 7
3 13 5
3 14 11
3 16 8
3 20 6
3 21 8
3 22 10
3 24 1
3 25 7
3 27 6
3 28 1
3 31 8
3 34 6
3 35 10
3 37 14
3 38 8
3 39 13
3 40 13
3 41 7
3 46 5
3 47 4
3 48 13
3 49 4
3 50 1
3 53 1
3 55 1
3 56 9
3 57 12
3 59 18
3 62 10
3 63 5
3 64 1
3 65 1
3 68 5
3 69 15
3 72 1
3 76 11
3 77 6
3 78 7
3 79 7
3 82 11
3 84 6
3 85 7
3 86 13
3 87 1
3 89 7
3 94 6
3 95 16
3 96 7
3 98 3
3 100 5
3 104 6
3 105 9
3 106 4
3 107 5
3 111 3
3 115 10
3 116 11
3 117 11
3 120 5
3 121 11
3 122 10
3 123 13
3 125 1
3 126 5
3 128 7
3 129 1
3 131 8
3 133 6
3 135 3
3 137 8
3 138 4
3 139 12
3 141 2
3 142 2
3 143 14
3 144 2
3 145 1
3 150 2
3 151 5
3 152 5
3 153 2
3 157 5
3 159 1
3 162 6
3 163 3
3 169 1
3 172 1
3 175 6
3 176 1
3 181 5
3 186 4
3 188 8
3 189 8
3 190 6
3 191 8
3 193 14
3 195 3
3 196 1
3 197 2
3 199 1
3 200 5
4 1 9
4 4 2
4 6 6
4 7 11
4 9 8
4 12 7
4 13 6
4 14 7
4 16 9
4 18 1
4 19 1
4 20 8
4 21 7
4 22 18
4 24 1
4 25 14
4 27 12
4 28 1
4 31 4
4 32 2
4 34 5
4 35 10
4 37 3
4 38 7
4 39 7
4 40 5
4 41 10
4 43 4
4 45 1
4 46 9
4 47 13
4 48 2
4 49 6
4 50 1
4 53 1
4 56 3
4 57 8
4 59 8
4 60 1
4 62 7
4 63 7
4 67 1
4 68 5
4 69 8
4 74 1
4 76 10
4 77 6
4 78 2
4 79 4
4 82 7
4 84 9
4 85 9
4 86 13
4 88 1
4 89 1
4 91 1
4 92 1
4 94 6
4 95 10
4 96 9
4 98 10
4 100 10
4 104 9
4 105 7
4 106 11
4 107 8
4 108 1
4 110 1
4 111 6
4 114 1
4 115 10
4 116 7
4 117 2
4 120 7
4 121 8
4 122 6
4 123 5
4 126 10
4 127 1
4 128 12
4 129 1
4 131 13
4 132 1
4 133 7
4 135 3
4 137 11
4 138 5
4 139 6
4 142 6
4 143 8
4 147 1
4 151 24
4 152 7
4 153 8
4 155 1
4 157 8
4 162 7
4 163 13
4 164 1
4 168 1
4 170 1
4 172 2
4 174 1
4 175 10
4 176 1
4 179 1
4 181 5
4 186 5
4 187 1
4 188 6
4 189 6
4 190 7
4 191 12
4 193 10
4 194 1
4 195 12
4 200 4
5 1 7
5 4 11
5 6 11
5 7 10
5 9 8
5 12 9
5 13 9
5 14 7
5 16 11
5 20 9
5 21 10
5 22 10
5 23 1
5 24 1
5 25 7
5 26 1
5 27 11
5 28 1
5 30 1
5 31 11
5 33 2
5 34 13
5 35 4
5 37 8
5 38 6
5 39 10
5 40 7
5 41 13
5 42 1
5 44 1
5 46 9
5 47 6
5 48 8
5 49 7
5 50 1
5 56 5
5 57 7
5 59 8
5 61 1
5 62 6
5 63 4
5 64 1
5 68 9
5 69 8
5 70 1
5 71 1
5 72 1
5 75 1
5 76 12
5 77 9
5 78 4
5 79 4
5 82 10
5 84 7
5 85 3
5 86 9
5 87 2
5 88 1
5 89 8
5 90 1
5 92 1
5 93 1
5 94 7
5 95 10
5 96 6
5 98 10
5 100 6
5 101 1
5 103 1
5 104 3
5 105 2
5 106 13
5 107 6
5 108 1
5 111 6
5 114 1
5 115 6
5 116 10
5 117 4
5 119 1
5 120 6
5 121 12
5 122 4
5 123 8
5 126 7
5 128 3
5 130 1
5 131 8
5 133 9
5 135 1
5 137 10
5 138 6
5 139 12
5 140 1
5 142 5
5 143 5
5 150 2
5 151 16
5 152 7
5 153 10
5 157 16
5 158 1
5 162 8
5 163 5
5 164 1
5 169 2
5 173 1
5 175 8
5 176 1
5 177 1
5 181 7
5 186 8
5 187 1
5 188 8
5 189 11
5 190 12
5 191 11
5 193 4
5 195 19
5 197 1
5 198 1
5 200 7
6 1 7
6 4 3
6 6 9
6 7 5
6 9 4
6 10 1
6 12 9
6 13 10
6 14 12
6 16 11
6 20 9
6 21 9
6 22 8
6 25 9
6 27 4
6 30 1
6 31 13
6 34 11
6 35 5
6 37 7
6 38 5
6 39 9
6 40 10
6 41 9
6 44 1
6 45 1
6 46 5
6 47 10
6 48 2
6 49 4
6 53 1
6 55 1
6 56 10
6 57 7
6 58 1
6 59 12
6 62 6
6 63 5
6 66 1
6 68 10
6 69 5
6 70 2
6 74 1
6 76 12
6 77 5
6 78 7
6 79 10
6 81 1
6 82 10
6 83 1
6 84 10
6 85 8
6 86 7
6 88 1
6 89 7
6 94 4
6 95 11
6 96 11
6 98 6
6 100 8
6 101 1
6 104 16
6 105 7
6 106 5
6 107 6
6 111 7
6 115 8
6 116 6
6 117 7
6 120 8
6 121 11
6 122 3
6 123 5
6 126 6
6 127 2
6 128 8
6 131 5
6 133 9
6 135 7
6 137 14
6 138 6
6 139 5
6 140 1
6 142 7
6 143 11
6 144 1
6 147 1
6 151 4
6 152 11
6 153 9
6 157 5
6 159 1
6 162 6
6 163 6
6 164 1
6 172 1
6 174 1
6 175 9
6 176 2
6 177 1
6 179 1
6 181 13
6 184 1
6 186 9
6 188 9
6 189 4
6 190 8
6 191 4
6 192 1
6 193 9
6 195 7
6 200 7
7 7 2
7 8 1
7 9 1
7 10 1
7 11 1
7 12 1
7 15 6
7 17 8
7 18 1
7 23 5
7 24 7
7 26 7
7 29 8
7 31 1
7 33 1
7 34 1
7 36 13
7 39 1
7 41 1
7 42 6
7 44 5
7 45 1
7 47 1
7 50 5
7 51 1
7 54 9
7 60 1
7 64 12
7 66 1
7 67 4
7 70 3
7 71 6
7 72 11
7 73 1
7 74 1
7 75 2
7 82 1
7 83 8
7 91 12
7 97 7
7 100 1
7 105 2
7 108 11
7 109 6
7 110 10
7 111 1
7 118 6
7 119 4
7 125 4
7 128 1
7 129 1
7 132 5
7 140 1
7 144 10
7 145 5
7 146 8
7 149 1
7 150 5
7 155 7
7 158 4
7 164 19
7 166 8
7 167 8
7 170 7
7 173 7
7 177 13
7 178 9
7 179 11
7 180 1
7 182 10
7 183 12
7 187 5
7 192 8
7 197 1
8 7 1
8 9 1
8 10 2
8 15 6
8 16 1
8 17 2
8 18 4
8 23 7
8 24 7
8 26 6
8 29 5
8 36 10
8 42 7
8 44 14
8 50 4
8 54 6
8 61 1
8 63 1
8 64 7
8 67 10
8 68 1
8 70 10
8 71 4
8 72 12
8 76 2
8 77 1
8 80 1
8 83 5
8 84 2
8 87 1
8 91 11
8 97 7
8 101 1
8 102 1
8 106 1
8 108 6
8 109 15
8 110 5
8 115 1
8 118 4
8 119 6
8 122 1
8 125 7
8 127 2
8 129 3
8 132 6
8 139 1
8 141 1
8 143 1
8 144 7
8 145 10
8 146 9
8 150 8
8 154 1
8 155 12
8 157 2
8 158 15
8 161 1
8 164 14
8 165 1
8 166 7
8 167 12
8 169 1
8 170 5
8 173 7
8 177 6
8 178 7
8 179 11
8 182 4
8 183 6
8 187 11
8 189 1
8 192 5
8 197 7
9 2 1
9 6 1
9 8 1
9 13 2
9 15 8
9 16 1
9 17 7
9 18 7
9 19 1
9 23 10
9 24 6
9 26 14
9 29 5
9 33 1
9 36 12
9 37 2
9 39 1
9 42 7
9 43 1
9 44 7
9 50 3
9 54 8
9 56 1
9 57 1
9 58 1
9 64 9
9 67 8
9 69 1
9 70 8
9 71 7
9 72 10
9 81 1
9 83 8
9 84 1
9 91 5
9 92 1
9 96 2
9 97 9
9 98 1
9 99 1
9 101 1
9 104 1
9 105 1
9 108 9
9 109 11
9 110 7
9 115 1
9 118 5
9 119 1
9 121 2
9 123 1
9 125 8
9 126 1
9 131 1
9 132 7
9 141 1
9 144 5
9 145 10
9 146 5
9 150 11
9 153 1
9 155 9
9 158 13
9 159 1
9 164 6
9 166 9
9 167 6
9 170 9
9 171 2
9 173 14
9 177 4
9 178 11
9 179 5
9 182 13
9 183 4
9 185 1
9 187 10
9 191 1
9 192 8
9 193 1
9 197 6
9 199 2
10 3 1
10 4 3
10 5 1
10 7 1
10 12 1
10 15 8
10 17 6
10 18 5
10 23 4
10 24 6
10 26 8
10 29 7
10 33 1
10 35 1
10 36 12
10 37 1
10 42 9
10 44 9
10 47 1
10 48 1
10 50 9
10 54 11
10 55 1
10 60 1
10 61 1
10 64 6
10 65 1
10 66 1
10 67 16
10 69 1
10 70 14
10 71 10
10 72 11
10 73 2
10 77 1
10 80 1
10 83 5
10 87 1
10 91 15
10 94 1
10 95 1
10 97 7
10 102 1
10 105 1
10 108 6
10 109 9
10 110 6
10 112 1
10 117 1
10 118 6
10 119 10
10 125 11
10 126 1
10 132 5
10 133 1
10 137 2
10 144 12
10 145 9
10 146 6
10 150 11
10 155 7
10 158 12
10 164 5
10 165 2
10 166 7
10 167 11
10 170 16
10 173 8
10 175 2
10 177 5
10 178 8
10 179 5
10 182 9
10 183 8
10 187 12
10 188 1
10 192 11
10 194 1
10 195 1
10 196 1
10 197 5
10 199 1
11 8 1
11 9 1
11 15 10
11 17 8
11 18 6
11 20 1
11 23 7
11 24 4
11 26 8
11 29 9
11 34 1
11 35 1
11 36 8
11 38 1
11 42 14
11 44 12
11 48 1
11 50 7
11 52 1
11 54 9
11 62 1
11 64 6
11 67 9
11 68 1
11 69 1
11 70 8
11 71 7
11 72 12
11 81 1
11 83 6
11 88 1
11 91 4
11 94 1
11 97 10
11 100 1
11 108 9
11 109 9
11 110 10
11 114 1
11 118 7
11 119 2
11 121 1
11 124 1
11 125 10
11 127 1
11 130 1
11 132 3
11 134 1
11 143 1
11 144 9
11 145 11
11 146 7
11 148 1
11 150 8
11 153 1
11 155 9
11 156 2
11 158 6
11 160 1
11 164 13
11 166 5
11 167 13
11 170 9
11 172 1
11 173 4
11 174 1
11 176 1
11 177 9
11 178 7
11 179 10
11 182 9
11 183 6
11 185 1
11 187 4
11 191 1
11 192 7
11 193 1
11 197 12
11 199 2
12 5 1
12 6 1
12 7 1
12 15 3
12 17 8
12 18 10
12 21 1
12 23 10
12 24 4
12 25 2
12 26 18
12 29 11
12 32 2
12 36 12
12 40 1
12 42 4
12 44 7
12 50 9
12 51 1
12 54 6
12 57 1
12 62 1
12 64 7
12 65 3
12 67 5
12 70 6
12 71 6
12 72 9
12 73 2
12 77 1
12 83 7
12 91 12
12 92 1
12 94 2
12 97 6
12 108 3
12 109 6
12 110 11
12 118 6
12 119 6
12 125 4
12 129 1
12 132 6
12 144 6
12 145 8
12 146 10
12 148 1
12 149 1
12 150 5
12 155 3
12 158 7
12 161 1
12 162 1
12 164 9
12 165 1
12 166 5
12 167 14
12 170 4
12 173 2
12 174 1
12 177 8
12 178 8
12 179 13
12 182 10
12 183 10
12 187 7
12 192 9
12 197 9
12 199 1
13 2 11
13 3 6
13 5 7
13 11 2
13 12 1
13 15 2
13 21 1
13 26 1
13 28 12
13 29 2
13 30 4
13 36 1
13 42 1
13 43 14
13 52 5
13 55 7
13 58 1
13 60 5
13 61 4
13 66 7
13 68 1
13 69 1
13 73 9
13 75 7
13 78 1
13 80 1
13 88 14
13 89 1
13 90 11
13 91 1
13 93 9
13 98 1
13 99 7
13 102 1
13 103 8
13 105 1
13 108 2
13 112 6
13 113 9
13 114 3
13 115 1
13 127 9
13 130 8
13 131 2
13 134 4
13 136 11
13 138 1
13 141 10
13 145 1
13 147 1
13 153 1
13 154 1
13 159 1
13 161 7
13 165 1
13 166 1
13 167 1
13 168 12
13 169 5
13 170 1
13 171 13
13 174 1
13 176 14
13 179 1
13 180 7
13 181 1
13 184 4
13 188 3
13 198 5
13 199 10
14 2 8
14 3 12
14 5 5
14 9 1
14 15 1
14 28 6
14 29 1
14 30 2
14 31 1
14 32 1
14 35 1
14 39 1
14 40 2
14 42 1
14 43 6
14 44 1
14 47 1
14 50 1
14 51 1
14 52 11
14 55 10
14 57 1
14 60 13
14 61 4
14 66 7
14 71 2
14 73 9
14 75 6
14 76 1
14 84 1
14 88 6
14 89 2
14 90 10
14 91 1
14 93 8
14 95 1
14 97 2
14 98 1
14 99 11
14 101 2
14 102 1
14 103 12
14 105 1
14 112 7
14 113 9
14 114 9
14 115 1
14 127 11
14 128 1
14 129 1
14 130 4
14 134 9
14 136 5
14 141 9
14 143 1
14 144 1
14 145 1
14 147 1
14 151 2
14 154 14
14 156 1
14 158 1
14 161 4
14 164 1
14 168 12
14 169 8
14 171 9
14 172 1
14 174 1
14 175 1
14 176 5
14 178 1
14 179 1
14 180 9
14 181 1
14 182 1
14 184 13
14 188 1
14 189 2
14 193 1
14 194 2
14 198 7
14 199 10
15 2 8
15 3 8
15 5 5
15 14 1
15 24 1
15 27 1
15 28 6
15 30 14
15 34 1
15 40 1
15 43 11
15 45 1
15 50 1
15 52 4
15 55 2
15 58 1
15 60 7
15 61 10
15 65 1
15 66 4
15 71 1
15 73 10
15 74 1
15 75 11
15 77 1
15 81 1
15 88 8
15 89 1
15 90 7
15 92 2
15 93 6
15 95 1
15 99 8
15 101 1
15 103 7
15 109 1
15 111 1
15 112 11
15 113 12
15 114 5
15 116 1
15 122 1
15 127 8
15 128 1
15 130 11
15 133 1
15 134 4
15 136 9
15 140 1
15 141 14
15 147 1
15 149 1
15 151 1
15 154 3
15 158 1
15 159 1
15 160 1
15 161 6
15 168 8
15 169 5
15 171 7
15 173 1
15 175 1
15 176 9
15 178 1
15 180 8
15 184 8
15 185 2
15 186 1
15 187 1
15 198 5
15 199 5
16 2 8
16 3 10
16 5 1
16 6 1
16 22 1
16 28 10
16 30 8
16 31 1
16 39 2
16 40 1
16 43 6
16 49 1
16 51 1
16 52 13
16 55 4
16 60 7
16 61 11
16 63 1
16 64 1
16 65 1
16 66 5
16 72 1
16 73 5
16 75 8
16 77 1
16 80 1
16 83 1
16 84 1
16 88 7
16 90 7
16 93 10
16 95 1
16 96 1
16 99 12
16 100 1
16 102 1
16 103 12
16 107 1
16 112 6
16 113 9
16 114 7
16 116 2
16 117 2
16 119 2
16 122 2
16 127 5
16 128 1
16 130 7
16 132 2
16 133 1
16 134 11
16 136 10
16 137 1
16 140 1
16 141 5
16 143 1
16 146 1
16 147 1
16 151 1
16 152 1
16 154 7
16 156 1
16 157 1
16 160 1
16 161 8
16 162 1
16 168 7
16 169 7
16 170 1
16 171 6
16 173 1
16 176 8
16 180 10
16 183 1
16 184 11
16 193 2
16 196 2
16 198 6
16 199 4
16 200 1
17 2 8
17 3 10
17 4 1
17 5 7
17 6 1
17 7 1
17 14 3
17 22 1
17 26 1
17 27 1
17 28 9
17 30 4
17 31 1
17 39 1
17 43 10
17 44 1
17 51 1
17 52 11
17 53 1
17 55 11
17 59 1
17 60 9
17 61 9
17 62 1
17 66 10
17 71 1
17 73 10
17 75 15
17 78 3
17 87 1
17 88 7
17 89 1
17 90 9
17 93 4
17 95 1
17 99 3
17 103 8
17 112 7
17 113 4
17 114 5
17 115 1
17 126 2
17 127 5
17 130 7
17 131 2
17 134 7
17 136 7
17 138 1
17 139 1
17 140 1
17 141 5
17 142 3
17 145 1
17 146 1
17 149 1
17 151 2
17 154 4
17 157 1
17 158 1
17 161 8
17 168 12
17 169 6
17 171 5
17 172 1
17 176 6
17 180 11
17 182 1
17 184 15
17 195 1
17 196 1
17 197 2
17 198 11
17 199 9
17 200 1
18 2 8
18 3 8
18 4 1
18 5 11
18 7 1
18 11 1
18 18 1
18 24 1
18 28 9
18 30 6
18 38 1
18 39 1
18 41 1
18 43 11
18 52 9
18 55 7
18 57 1
18 60 7
18 61 9
18 62 1
18 65 2
18 66 6
18 67 1
18 70 2
18 73 10
18 75 5
18 76 1
18 81 1
18 85 1
18 88 10
18 90 6
18 92 1
18 93 6
18 94 1
18 97 2
18 98 1
18 99 10
18 100 1
18 103 10
18 112 14
18 113 11
18 114 6
18 124 1
18 127 8
18 128 1
18 130 6
18 132 1
18 134 10
18 136 9
18 141 8
18 142 1
18 145 1
18 146 1
18 154 8
18 156 2
18 158 1
18 161 5
18 162 1
18 166 1
18 168 10
18 169 7
18 171 9
18 174 1
18 176 4
18 177 1
18 178 1
18 180 10
18 182 2
18 184 12
18 186 1
18 196 1
18 198 15
18 199 9
19 1 1
19 7 1
19 8 6
19 10 5
19 11 7
19 12 2
19 16 2
19 19 11
19 23 1
19 30 2
19 32 8
19 33 5
19 34 1
19 45 9
19 51 13
19 53 10
19 58 11
19 62 1
19 63 1
19 65 12
19 67 1
19 72 1
19 73 1
19 74 3
19 80 7
19 81 5
19 82 1
19 87 5
19 89 1
19 90 1
19 92 7
19 94 1
19 101 3
19 102 5
19 113 1
19 117 1
19 124 11
19 129 11
19 133 1
19 136 1
19 140 8
19 146 1
19 147 7
19 148 13
19 149 14
19 151 1
19 156 7
19 157 1
19 159 3
19 160 8
19 161 2
19 164 2
19 165 4
19 170 1
19 171 1
19 172 4
19 174 5
19 176 1
19 179 1
19 183 1
19 185 9
19 186 1
19 189 2
19 191 1
19 193 1
19 194 10
19 196 5
19 200 1
20 8 8
20 10 9
20 11 14
20 18 1
20 19 12
20 28 1
20 30 1
20 32 1
20 33 7
20 40 1
20 41 1
20 45 5
20 51 9
20 53 11
20 56 1
20 58 6
20 59 1
20 61 1
20 62 1
20 65 10
20 68 3
20 71 2
20 72 2
20 74 8
20 75 1
20 78 1
20 80 5
20 81 16
20 83 1
20 87 4
20 88 1
20 90 1
20 92 11
20 101 10
20 102 10
20 103 1
20 105 1
20 108 1
20 111 1
20 112 1
20 115 1
20 120 1
20 124 7
20 128 2
20 129 6
20 140 9
20 147 12
20 148 8
20 149 4
20 150 2
20 151 1
20 156 12
20 159 7
20 160 8
20 163 1
20 165 8
20 170 1
20 172 10
20 173 1
20 174 3
20 175 1
20 183 1
20 185 6
20 186 1
20 187 1
20 190 1
20 194 14
20 196 4
20 197 1
21 5 1
21 8 8
21 9 1
21 10 9
21 11 7
21 15 1
21 18 1
21 19 10
21 20 1
21 21 1
21 22 1
21 26 1
21 32 7
21 33 7
21 36 1
21 37 1
21 43 1
21 45 5
21 46 2
21 47 1
21 51 14
21 53 2
21 55 1
21 58 8
21 60 1
21 61 1
21 64 1
21 65 5
21 69 1
21 74 5
21 77 2
21 80 11
21 81 9
21 86 1
21 87 12
21 88 1
21 92 9
21 96 1
21 99 1
21 101 6
21 102 5
21 112 1
21 120 2
21 123 1
21 124 3
21 129 7
21 131 2
21 137 1
21 140 12
21 145 2
21 146 1
21 147 4
21 148 2
21 149 13
21 153 1
21 155 1
21 156 6
21 157 1
21 159 10
21 160 11
21 165 5
21 167 1
21 172 10
21 174 6
21 175 1
21 177 2
21 178 1
21 183 1
21 184 2
21 185 4
21 190 1
21 193 1
21 194 5
21 196 8
22 3 1
22 7 1
22 8 5
22 10 4
22 11 9
22 19 8
22 20 2
22 21 1
22 22 1
22 23 1
22 24 1
22 26 1
22 32 9
22 33 7
22 34 1
22 36 1
22 43 1
22 45 8
22 47 1
22 51 16
22 53 6
22 56 1
22 58 5
22 64 1
22 65 6
22 71 1
22 72 1
22 74 9
22 75 1
22 80 7
22 81 4
22 83 1
22 87 3
22 88 1
22 92 6
22 94 1
22 95 1
22 100 1
22 101 7
22 102 12
22 106 1
22 108 2
22 112 1
22 115 1
22 116 3
22 123 1
22 124 4
22 125 1
22 126 2
22 127 1
22 129 9
22 135 1
22 136 1
22 137 1
22 140 6
22 143 1
22 147 11
22 148 6
22 149 7
22 152 1
22 153 1
22 156 3
22 159 10
22 160 4
22 165 14
22 167 1
22 168 1
22 172 15
22 174 10
22 178 1
22 181 1
22 184 1
22 185 5
22 194 9
22 196 5
22 200 1
23 5 1
23 8 4
23 9 1
23 10 7
23 11 5
23 17 2
23 19 3
23 26 2
23 32 8
23 33 7
23 42 1
23 45 8
23 48 1
23 51 4
23 53 8
23 55 1
23 58 13
23 59 1
23 65 10
23 68 3
23 74 11
23 80 5
23 81 11
23 82 1
23 86 1
23 87 8
23 92 8
23 99 3
23 101 16
23 102 9
23 105 1
23 106 1
23 107 1
23 111 1
23 114 1
23 120 2
23 121 1
23 124 6
23 129 8
23 131 1
23 135 1
23 136 1
23 139 1
23 140 11
23 144 1
23 145 1
23 147 8
23 148 7
23 149 5
23 154 2
23 156 8
23 159 4
23 160 4
23 165 15
23 172 10
23 174 13
23 177 1
23 180 1
23 181 1
23 182 1
23 185 13
23 187 1
23 190 1
23 194 12
23 195 1
23 196 14
24 3 1
24 4 1
24 5 1
24 8 10
24 10 10
24 11 10
24 15 1
24 19 10
24 25 1
24 32 9
24 33 5
24 37 1
24 43 2
24 44 2
24 45 6
24 49 1
24 51 8
24 52 1
24 53 16
24 57 1
24 58 9
24 64 1
24 65 19
24 66 1
24 68 2
24 74 12
24 76 1
24 80 10
24 81 9
24 82 1
24 87 8
24 97 1
24 98 1
24 101 7
24 102 7
24 108 1
24 114 1
24 120 1
24 122 1
24 124 3
24 125 1
24 129 5
24 132 1
24 133 1
24 134 1
24 139 1
24 140 7
24 142 1
24 144 1
24 146 1
24 147 8
24 148 6
24 149 8
24 156 8
24 158 1
24 159 3
24 160 11
24 165 3
24 166 1
24 172 8
24 173 1
24 174 5
24 178 1
24 180 1
24 183 1
24 185 5
24 187 1
24 192 1
24 194 7
24 196 8
25 1 8
25 2 7
25 3 2
25 4 4
25 5 8
25 6 5
25 7 7
25 8 7
25 9 6
25 10 6
25 11 5
25 12 8
25 13 6
25 14 9
25 15 5
25 16 2
25 17 2
25 18 10
25 19 3
25 20 3
25 21 7
25 22 8
25 23 6
25 24 3
25 25 8
25 26 3
25 27 3
25 28 8
25 29 6
25 30 2
25 31 3
25 32 7
25 33 4
25 34 2
25 35 7
25 36 4
25 37 11
25 38 5
25 39 4
25 40 7
25 41 8
25 42 8
25 43 9
25 44 7
25 45 11
25 46 6
25 47 6
25 48 9
25 49 9
25 50 5
25 51 5
25 52 4
25 53 6
25 54 4
25 55 6
25 56 8
25 57 6
25 58 9
25 59 6
25 60 8
25 61 5
25 62 6
25 63 3
25 64 4
25 65 5
25 66 8
25 67 3
25 68 8
25 69 6
25 70 3
25 71 3
25 72 1
25 73 10
25 74 9
25 75 8
25 76 6
25 77 8
25 78 10
25 79 5
25 80 9
25 81 5
25 82 8
25 83 8
25 84 8
25 85 7
25 86 4
25 87 9
25 88 6
25 89 6
25 90 8
25 91 9
25 92 4
25 93 7
25 94 6
25 95 4
25 96 5
25 97 4
25 98 12
25 99 1
25 100 8
25 101 4
25 102 4
25 103 9
25 104 5
25 105 7
25 106 6
25 107 8
25 108 9
25 109 3
25 110 11
25 111 6
25 113 4
25 114 7
25 115 6
25 116 6
25 117 6
25 118 10
25 119 3
25 120 8
25 121 9
25 122 3
25 123 9
25 124 2
25 125 5
25 126 6
25 127 7
25 128 4
25 129 2
25 130 5
25 131 8
25 132 8
25 133 9
25 134 3
25 135 11
25 136 8
25 137 10
25 138 5
25 139 3
25 140 10
25 141 2
25 142 6
25 143 7
25 144 5
25 145 3
25 146 4
25 147 6
25 148 8
25 149 12
25 150 8
25 151 5
25 152 9
25 153 3
25 154 7
25 155 5
25 156 6
25 157 13
25 158 4
25 159 6
25 160 4
25 161 4
25 162 8
25 163 6
25 164 5
25 165 8
25 166 7
25 167 2
25 168 5
25 169 5
25 170 7
25 171 7
25 172 7
25 173 10
25 174 7
25 175 6
25 176 5
25 177 3
25 178 6
25 179 6
25 180 4
25 181 8
25 182 9
25 183 10
25 184 4
25 185 5
25 186 5
25 187 4
25 188 5
25 189 5
25 190 6
25 191 8
25 192 3
25 193 4
25 194 3
25 195 6
25 196 11
25 197 7
25 198 1
25 199 4
25 200 8
26 1 3
26 2 7
26 3 2
26 4 5
26 5 11
26 6 4
26 7 6
26 8 4
26 9 4
26 10 5
26 11 5
26 12 6
26 13 7
26 14 9
26 15 4
26 16 9
26 17 4
26 18 8
26 19 5
26 20 8
26 21 7
26 22 6
26 23 7
26 24 5
26 25 5
26 26 7
26 27 6
26 28 2
26 29 4
26 30 8
26 31 10
26 32 6
26 33 10
26 34 6
26 35 8
26 36 5
26 37 4
26 38 12
26 39 6
26 40 3
26 41 5
26 42 2
26 43 11
26 44 3
26 45 4
26 46 9
26 47 6
26 48 6
26 49 3
26 50 4
26 51 10
26 52 8
26 53 7
26 54 10
26 55 4
26 56 3
26 57 6
26 58 3
26 59 6
26 60 6
26 61 8
26 62 7
26 63 4
26 64 6
26 65 18
26 66 5
26 67 7
26 68 5
26 69 6
26 70 6
26 71 8
26 72 5
26 73 3
26 74 5
26 75 4
26 76 6
26 77 8
26 78 5
26 79 10
26 80 6
26 81 8
26 82 8
26 83 6
26 84 4
26 85 8
26 86 4
26 87 7
26 88 3
26 89 12
26 90 6
26 91 8
26 92 8
26 93 6
26 94 11
26 95 10
26 96 2
26 97 3
26 98 3
26 99 9
26 100 6
26 101 9
26 102 7
26 103 4
26 104 1
26 105 4
26 106 5
26 107 6
26 108 4
26 109 8
26 110 3
26 111 5
26 112 4
26 113 8
26 114 6
26 115 9
26 116 2
26 117 8
26 118 2
26 119 6
26 120 3
26 121 9
26 122 9
26 123 9
26 124 6
26 125 9
26 126 8
26 127 3
26 128 8
26 129 7
26 130 5
26 131 11
26 132 8
26 133 6
26 134 11
26 135 3
26 136 1
26 137 6
26 138 4
26 139 9
26 140 2
26 141 5
26 142 5
26 143 4
26 144 3
26 145 7
26 146 8
26 147 8
26 148 3
26 149 4
26 150 8
26 151 4
26 152 8
26 153 6
26 154 4
26 155 3
26 156 6
26 157 4
26 158 10
26 159 7
26 160 9
26 161 6
26 162 3
26 163 3
26 164 5
26 165 3
26 166 5
26 167 9
26 168 9
26 169 2
26 170 5
26 171 8
26 172 6
26 173 10
26 174 10
26 175 5
26 176 5
26 177 4
26 178 5
26 179 4
26 180 4
26 181 5
26 182 5
26 183 9
26 184 7
26 185 7
26 186 8
26 187 8
26 188 4
26 189 6
26 190 3
26 191 7
26 192 8
26 193 6
26 194 11
26 195 6
26 196 5
26 197 6
26 198 6
26 199 5
26 200 3
27 1 6
27 2 4
27 3 6
27 4 4
27 5 5
27 6 5
27 7 7
27 8 6
27 9 5
27 10 5
27 11 3
27 12 10
27 13 2
27 14 3
27 15 11
27 16 7
27 18 8
27 19 6
27 20 2
27 21 4
27 22 10
27 23 9
27 24 7
27 25 6
27 26 12
27 27 6
27 28 3
27 29 6
27 30 8
27 31 2
27 32 4
27 33 3
27 34 2
27 35 6
27 36 7
27 37 4
27 38 2
27 39 3
27 40 5
27 41 5
27 42 6
27 43 5
27 44 2
27 45 4
27 46 2
27 47 6
27 48 5
27 49 3
27 50 6
27 51 9
27 52 9
27 53 6
27 54 5
27 55 3
27 56 4
27 57 5
27 58 2
27 59 3
27 60 3
27 61 5
27 62 3
27 63 5
27 64 4
27 65 7
27 66 11
27 67 2
27 68 8
27 69 5
27 70 3
27 71 8
27 72 6
27 73 7
27 74 9
27 75 3
27 76 3
27 77 4
27 78 14
27 79 7
27 80 1
27 81 7
27 82 11
27 83 3
27 84 13
27 85 4
27 86 6
27 87 4
27 88 6
27 89 4
27 90 9
27 91 4
27 92 9
27 93 9
27 94 6
27 95 2
27 96 3
27 97 5
27 98 15
27 99 6
27 100 6
27 101 8
27 102 4
27 103 4
27 104 8
27 105 6
27 106 5
27 107 8
27 108 3
27 109 7
27 110 7
27 111 10
27 112 4
27 113 9
27 114 8
27 115 4
27 116 5
27 117 8
27 118 8
27 119 12
27 120 7
27 121 4
27 122 6
27 123 4
27 124 2
27 125 10
27 126 11
27 127 4
27 129 6
27 130 5
27 131 8
27 132 5
27 133 6
27 134 5
27 135 3
27 136 7
27 137 8
27 138 7
27 139 1
27 140 8
27 141 4
27 142 4
27 143 1
27 144 6
27 145 7
27 146 9
27 147 9
27 148 2
27 149 6
27 150 7
27 151 4
27 152 12
27 153 1
27 154 7
27 155 3
27 156 8
27 157 4
27 158 7
27 159 9
27 160 7
27 161 4
27 162 10
27 163 6
27 164 7
27 165 10
27 166 3
27 167 5
27 168 4
27 169 8
27 170 5
27 171 14
27 173 6
27 174 8
27 175 7
27 176 8
27 177 5
27 178 9
27 179 5
27 180 6
27 181 6
27 182 3
27 183 4
27 184 3
27 185 4
27 186 9
27 187 7
27 188 7
27 189 8
27 190 4
27 191 8
27 192 5
27 193 9
27 194 5
27 195 5
27 196 5
27 197 7
27 198 3
27 199 8
27 200 6
28 1 3
28 2 8
28 3 7
28 4 5
28 5 8
28 6 6
28 7 6
28 8 6
28 9 7
28 10 7
28 11 3
28 12 6
28 13 6
28 14 8
28 15 4
28 16 3
28 17 7
28 18 4
28 19 5
28 20 4
28 21 3
28 22 6
28 23 12
28 24 4
28 25 6
28 26 3
28 27 7
28 28 9
28 29 5
28 30 8
28 31 4
28 32 7
28 33 3
28 34 9
28 35 9
28 36 7
28 37 6
28 38 6
28 39 3
28 40 3
28 41 2
28 42 2
28 43 2
28 44 10
28 45 4
28 46 5
28 47 6
28 48 10
28 49 3
28 50 6
28 51 5
28 52 5
28 53 9
28 54 9
28 55 5
28 56 5
28 57 9
28 58 4
28 59 8
28 60 6
28 61 5
28 62 8
28 63 4
28 64 4
28 65 10
28 66 11
28 67 11
28 68 5
28 69 5
28 70 7
28 71 7
28 72 5
28 73 3
28 74 10
28 75 3
28 76 7
28 77 7
28 78 3
28 79 5
28 80 3
28 81 4
28 82 8
28 83 5
28 84 5
28 85 6
28 86 3
28 87 2
28 88 8
28 89 7
28 90 1
28 91 5
28 92 10
28 93 4
28 94 1
28 95 5
28 96 7
28 97 6
28 98 4
28 99 6
28 100 4
28 101 2
28 102 4
28 103 5
28 104 6
28 105 6
28 106 5
28 107 3
28 108 6
28 109 4
28 110 5
28 111 4
28 112 1
28 113 5
28 114 5
28 115 3
28 116 9
28 117 9
28 118 12
28 119 8
28 120 6
28 121 5
28 122 6
28 123 5
28 124 5
28 125 7
28 126 1
28 127 4
28 128 11
28 129 8
28 130 10
28 131 5
28 132 6
28 133 5
28 134 8
28 135 6
28 136 5
28 137 6
28 138 7
28 139 5
28 140 3
28 141 9
28 142 5
28 143 12
28 144 8
28 145 9
28 146 7
28 147 4
28 148 6
28 149 4
28 150 6
28 151 8
28 152 11
28 153 7
28 154 9
28 155 1
28 156 7
28 157 6
28 158 4
28 159 7
28 160 3
28 161 6
28 162 5
28 163 5
28 164 7
28 165 7
28 166 3
28 167 8
28 168 6
28 169 6
28 170 5
28 171 7
28 172 4
28 173 3
28 174 6
28 175 5
28 176 6
28 177 6
28 178 6
28 179 1
28 180 4
28 181 10
28 182 9
28 183 2
28 184 10
28 185 8
28 186 4
28 187 3
28 188 8
28 189 3
28 190 11
28 191 3
28 192 9
28 193 8
28 194 1
28 195 7
28 196 7
28 197 5
28 198 3
28 199 5
28 200 8
29 1 5
29 2 6
29 3 7
29 4 6
29 5 9
29 6 9
29 7 7
29 8 7
29 9 5
29 10 11
29 11 10
29 12 6
29 13 5
29 14 7
29 15 3
29 16 3
29 17 8
29 18 4
29 19 4
29 20 1
29 21 3
29 22 5
29 23 1
29 24 4
29 25 5
29 26 6
29 27 7
29 28 9
29 29 5
29 30 13
29 31 6
29 32 4
29 33 6
29 34 4
29 35 5
29 36 3
29 37 7
29 38 2
29 39 6
29 40 6
29 41 7
29 42 13
29 43 9
29 44 9
29 45 1
29 46 9
29 47 4
29 48 5
29 49 6
29 50 6
29 51 6
29 52 8
29 53 5
29 54 5
29 55 6
29 56 3
29 57 7
29 58 4
29 59 4
29 60 8
29 61 5
29 62 7
29 63 7
29 64 5
29 65 7
29 66 1
29 67 4
29 68 6
29 69 5
29 70 7
29 71 4
29 72 5
29 73 8
29 74 10
29 75 6
29 76 3
29 77 7
29 78 10
29 79 6
29 80 7
29 81 8
29 82 6
29 83 8
29 84 4
29 85 13
29 86 6
29 87 8
29 88 9
29 89 3
29 90 2
29 91 9
29 92 11
29 93 9
29 94 12
29 95 7
29 96 5
29 97 5
29 98 7
29 99 6
29 100 5
29 101 9
29 102 4
29 103 10
29 104 6
29 105 2
29 106 8
29 107 8
29 108 4
29 109 6
29 110 20
29 111 12
29 112 8
29 113 3
29 114 3
29 115 8
29 116 7
29 117 3
29 118 6
29 119 6
29 120 8
29 121 6
29 122 4
29 123 6
29 124 8
29 125 3
29 126 5
29 127 5
29 128 6
29 129 5
29 130 3
29 131 4
29 132 10
29 133 3
29 134 4
29 135 9
29 136 7
29 137 4
29 138 4
29 139 8
29 140 8
29 141 5
29 142 7
29 143 1
29 144 4
29 145 7
29 146 5
29 147 2
29 148 3
29 149 7
29 150 3
29 151 3
29 152 7
29 153 6
29 154 9
29 155 7
29 156 1
29 157 8
29 158 6
29 159 2
29 160 7
29 161 2
29 162 8
29 163 7
29 164 3
29 165 5
29 166 4
29 167 6
29 168 6
29 169 6
29 170 5
29 171 6
29 172 7
29 173 3
29 174 4
29 175 7
29 176 12
29 177 2
29 178 2
29 179 12
29 180 5
29 181 4
29 182 4
29 183 6
29 184 4
29 185 6
29 186 7
29 187 10
29 188 4
29 189 8
29 190 11
29 191 7
29 192 3
29 193 3
29 194 7
29 195 7
29 196 5
29 197 7
29 198 5
29 199 9
29 200 5
30 1 7
30 2 2
30 3 6
30 4 3
30 5 9
30 6 5
30 7 10
30 8 6
30 9 3
30 10 11
30 11 5
30 12 13
30 13 6
30 14 5
30 15 11
30 16 6
30 17 8
30 18 12
30 19 6
30 20 6
30 21 3
30 22 4
30 23 7
30 24 5
30 25 9
30 26 4
30 27 9
30 28 6
30 29 3
30 30 5
30 31 4
30 32 5
30 33 6
30 34 2
30 35 8
30 36 7
30 37 8
30 38 6
30 39 12
30 40 5
30 41 6
30 42 7
30 43 6
30 44 4
30 45 8
30 46 3
30 47 8
30 48 10
30 49 3
30 50 8
30 51 4
30 52 10
30 53 5
30 54 8
30 55 8
30 56 4
30 57 12
30 58 3
30 59 8
30 60 4
30 61 3
30 62 8
30 63 9
30 64 6
30 65 7
30 66 7
30 67 4
30 68 7
30 69 1
30 70 2
30 71 8
30 72 7
30 73 10
30 74 6
30 75 7
30 76 11
30 77 4
30 78 5
30 79 7
30 80 4
30 81 4
30 82 8
30 83 6
30 84 3
30 85 9
30 86 3
30 87 9
30 88 3
30 89 8
30 90 7
30 91 9
30 92 4
30 93 8
30 94 6
30 95 10
30 96 3
30 97 3
30 98 8
30 99 10
30 100 11
30 101 9
30 102 7
30 103 6
30 104 3
30 105 7
30 106 3
30 107 4
30 108 4
30 109 9
30 110 8
30 111 9
30 112 5
30 113 7
30 114 3
30 115 7
30 116 8
30 117 5
30 118 4
30 119 13
30 120 6
30 121 3
30 122 6
30 123 6
30 124 5
30 125 3
30 126 6
30 127 4
30 128 6
30 129 9
30 130 10
30 131 6
30 132 11
30 133 11
30 134 3
30 135 5
30 136 5
30 137 6
30 138 7
30 139 6
30 140 3
30 141 8
30 142 5
30 143 4
30 144 4
30 145 7
30 146 5
30 147 6
30 148 6
30 149 9
30 150 4
30 151 2
30 152 6
30 153 7
30 154 3
30 155 9
30 156 7
30 157 5
30 158 3
30 159 5
30 160 6
30 161 10
30 162 6
30 163 6
30 164 4
30 165 3
30 166 5
30 167 7
30 168 6
30 169 2
30 170 5
30 171 7
30 172 5
30 173 6
30 174 9
30 175 7
30 176 10
30 177 3
30 178 8
30 179 7
30 180 7
30 181 4
30 182 7
30 183 5
30 184 8
30 185 9
30 186 4
30 187 4
30 188 8
30 189 4
30 190 5
30 191 7
30 192 5
30 193 6
30 194 6
30 195 8
30 196 7
30 197 3
30 198 8
30 199 11
30 200 4
31 1 5
31 2 7
31 3 3
31 4 7
31 5 5
31 6 12
31 7 2
31 8 4
31 9 6
31 10 5
31 11 4
31 12 9
31 13 4
31 14 8
31 15 8
31 16 5
31 17 5
31 18 6
31 19 6
31 20 5
31 21 3
31 22 6
31 23 6
31 24 9
31 25 6
31 26 5
31 27 5
31 28 7
31 29 4
31 30 3
31 31 4
31 32 6
31 33 3
31 34 6
31 35 3
31 36 1
31 37 3
31 38 8
31 39 9
31 40 6
31 41 5
31 42 5
31 43 7
31 44 7
31 45 10
31 46 2
31 47 7
31 48 6
31 49 3
31 50 4
31 51 1
31 52 9
31 53 8
31 54 9
31 55 7
31 56 7
31 57 8
31 58 6
31 59 7
31 60 7
31 61 8
31 62 6
31 63 3
31 64 8
31 65 12
31 66 10
31 67 8
31 68 5
31 69 8
31 70 3
31 71 5
31 72 6
31 73 6
31 74 6
31 75 10
31 76 6
31 77 6
31 78 8
31 79 2
31 80 2
31 81 5
31 82 8
31 83 7
31 84 8
31 85 6
31 86 10
31 87 6
31 88 8
31 89 1
31 90 6
31 91 11
31 92 7
31 93 9
31 94 8
31 95 3
31 96 8
31 97 3
31 98 3
31 99 10
31 100 7
31 101 8
31 102 7
31 103 6
31 104 7
31 105 9
31 106 5
31 107 5
31 108 4
31 109 9
31 110 4
31 111 1
31 112 4
31 113 12
31 114 5
31 115 3
31 116 8
31 117 7
31 118 6
31 119 7
31 120 3
31 121 3
31 122 4
31 123 5
31 124 3
31 125 6
31 126 4
31 127 6
31 128 5
31 129 5
31 130 7
31 131 5
31 132 11
31 133 7
31 134 3
31 135 6
31 136 5
31 137 6
31 138 6
31 139 6
31 140 7
31 141 6
31 142 13
31 143 3
31 144 6
31 145 6
31 146 6
31 147 1
31 148 9
31 149 8
31 150 15
31 151 7
31 152 6
31 153 6
31 154 4
31 155 8
31 156 4
31 157 7
31 158 10
31 159 2
31 160 8
31 161 6
31 162 4
31 163 7
31 164 3
31 165 5
31 166 12
31 167 6
31 168 5
31 169 3
31 170 6
31 171 4
31 172 14
31 173 10
31 175 6
31 176 5
31 177 4
31 178 6
31 179 2
31 180 6
31 181 2
31 182 5
31 183 7
31 184 4
31 185 5
31 186 2
31 187 2
31 188 4
31 189 9
31 190 7
31 191 6
31 192 7
31 193 2
31 194 11
31 195 8
31 196 4
31 197 6
31 198 5
31 199 5
31 200 9
32 1 10
32 2 4
32 3 6
32 4 4
32 5 4
32 6 3
32 7 9
32 8 4
32 9 8
32 10 9
32 11 7
32 12 7
32 13 9
32 14 10
32 15 8
32 16 4
32 17 3
32 18 10
32 19 3
32 20 4
32 21 8
32 22 6
32 23 9
32 24 9
32 25 2
32 26 8
32 27 5
32 28 8
32 29 9
32 30 3
32 31 4
32 32 1
32 33 2
32 34 6
32 35 7
32 36 3
32 37 9
32 38 7
32 39 5
32 40 3
32 41 4
32 42 6
32 43 10
32 44 9
32 45 7
32 46 3
32 47 9
32 48 4
32 49 10
32 50 4
32 51 3
32 52 3
32 53 2
32 54 12
32 55 5
32 56 2
32 57 5
32 58 2
32 59 6
32 60 3
32 61 4
32 62 3
32 63 7
32 64 5
32 65 10
32 66 9
32 67 2
32 68 4
32 69 4
32 70 6
32 71 10
32 72 6
32 73 5
32 74 5
32 75 8
32 76 9
32 77 3
32 78 3
32 79 3
32 80 6
32 81 5
32 82 9
32 83 6
32 84 7
32 85 11
32 86 9
32 87 4
32 88 8
32 89 11
32 90 7
32 91 4
32 92 7
32 93 8
32 94 7
32 95 9
32 96 7
32 97 12
32 98 5
32 99 8
32 100 6
32 101 6
32 102 4
32 103 6
32 104 8
32 105 3
32 106 9
32 107 10
32 108 8
32 109 11
32 110 5
32 111 10
32 112 4
32 113 6
32 114 14
32 115 4
32 116 1
32 117 3
32 118 4
32 119 8
32 120 6
32 121 6
32 122 6
32 123 9
32 124 4
32 125 6
32 126 2
32 127 5
32 128 5
32 129 5
32 130 5
32 131 6
32 132 6
32 133 7
32 134 2
32 135 14
32 136 7
32 137 10
32 138 4
32 139 11
32 140 2
32 141 6
32 142 5
32 143 9
32 144 13
32 145 8
32 146 6
32 147 6
32 148 6
32 149 6
32 150 10
32 151 6
32 152 6
32 153 2
32 154 3
32 155 7
32 156 3
32 157 5
32 158 10
32 159 3
32 160 7
32 161 6
32 162 2
32 163 6
32 164 5
32 165 5
32 166 5
32 167 6
32 168 5
32 169 3
32 170 11
32 171 3
32 172 9
32 173 5
32 174 11
32 175 5
32 176 11
32 177 2
32 178 5
32 179 10
32 180 2
32 181 7
32 182 5
32 183 4
32 184 8
32 185 13
32 186 7
32 187 2
32 188 5
32 189 6
32 190 6
32 191 3
32 192 7
32 193 4
32 194 4
32 195 3
32 196 7
32 197 7
32 198 5
32 199 9
32 200 4
33 1 7
33 2 2
33 3 4
33 4 6
33 5 6
33 6 3
33 7 5
33 8 9
33 9 6
33 10 9
33 11 4
33 12 6
33 13 6
33 14 6
33 15 5
33 16 7
33 17 3
33 18 3
33 19 5
33 20 4
33 21 8
33 22 7
33 23 3
33 24 11
33 25 7
33 26 1
33 27 4
33 28 8
33 29 4
33 30 4
33 31 7
33 32 6
33 33 9
33 34 8
33 35 4
33 36 4
33 37 9
33 38 9
33 39 6
33 40 4
33 41 4
33 42 9
33 43 7
33 44 2
33 45 6
33 46 5
33 47 7
33 48 15
33 49 5
33 50 5
33 51 6
33 52 6
33 53 4
33 54 7
33 55 8
33 56 9
33 57 12
33 58 6
33 59 6
33 60 5
33 61 8
33 62 8
33 63 5
33 64 7
33 65 9
33 66 8
33 67 5
33 68 11
33 69 4
33 70 7
33 71 3
33 72 6
33 73 4
33 74 3
33 75 5
33 76 3
33 77 5
33 78 5
33 79 6
33 80 7
33 81 9
33 82 9
33 83 5
33 84 1
33 85 9
33 86 7
33 87 4
33 88 6
33 89 5
33 90 11
33 91 6
33 92 3
33 93 2
33 94 7
33 95 7
33 96 7
33 97 11
33 98 9
33 99 4
33 100 4
33 101 2
33 102 4
33 103 7
33 104 3
33 105 3
33 106 8
33 107 11
33 108 6
33 109 5
33 110 3
33 111 2
33 112 4
33 113 6
33 114 4
33 115 6
33 116 8
33 117 5
33 118 9
33 119 4
33 120 6
33 121 6
33 122 9
33 123 9
33 124 7
33 125 6
33 126 2
33 127 5
33 128 6
33 129 2
33 130 5
33 131 3
33 132 11
33 133 8
33 134 9
33 135 9
33 136 6
33 137 7
33 138 5
33 139 5
33 140 9
33 141 9
33 143 2
33 144 9
33 145 9
33 146 7
33 147 6
33 148 6
33 149 2
33 150 4
33 151 9
33 152 7
33 153 8
33 154 6
33 155 7
33 156 3
33 157 2
33 158 3
33 159 7
33 160 5
33 161 4
33 162 6
33 163 5
33 164 6
33 165 6
33 166 7
33 167 5
33 168 4
33 169 5
33 170 5
33 171 8
33 172 7
33 173 3
33 174 6
33 175 8
33 176 6
33 177 1
33 178 5
33 179 5
33 180 7
33 181 12
33 182 4
33 183 5
33 184 2
33 185 5
33 186 4
33 187 8
33 188 2
33 189 5
33 190 10
33 191 5
33 192 10
33 193 2
33 194 2
33 195 10
33 196 7
33 197 4
33 198 6
33 199 5
33 200 9
34 1 4
34 2 3
34 3 4
34 4 6
34 5 5
34 6 4
34 7 5
34 8 9
34 9 7
34 10 4
34 11 5
34 12 8
34 13 5
34 14 6
34 15 8
34 16 8
34 17 3
34 18 2
34 19 7
34 20 7
34 21 7
34 22 2
34 23 8
34 24 7
34 25 4
34 26 8
34 27 6
34 28 6
34 29 13
34 30 10
34 31 6
34 32 6
34 33 8
34 34 2
34 35 6
34 36 7
34 37 1
34 38 4
34 39 2
34 40 10
34 41 6
34 42 10
34 43 4
34 44 7
34 45 7
34 46 3
34 47 3
34 48 8
34 49 6
34 50 6
34 51 6
34 52 3
34 53 5
34 54 4
34 55 4
34 56 7
34 57 7
34 58 7
34 59 5
34 60 2
34 61 6
34 62 10
34 63 8
34 64 10
34 65 10
34 66 6
34 67 7
34 68 7
34 69 4
34 70 7
34 71 5
34 72 6
34 73 6
34 74 7
34 75 4
34 76 4
34 77 9
34 78 9
34 79 9
34 80 10
34 81 7
34 82 3
34 83 8
34 84 8
34 85 6
34 86 7
34 87 6
34 88 8
34 89 5
34 90 3
34 91 3
34 92 3
34 93 6
34 94 2
34 95 1
34 96 7
34 97 7
34 98 9
34 99 7
34 100 10
34 101 9
34 102 3
34 103 9
34 104 4
34 105 6
34 106 8
34 107 5
34 108 7
34 109 11
34 110 6
34 111 10
34 112 5
34 113 4
34 114 3
34 115 7
34 116 5
34 117 7
34 118 9
34 119 6
34 120 11
34 121 3
34 122 3
34 123 5
34 124 8
34 125 7
34 126 12
34 127 5
34 128 5
34 129 7
34 130 6
34 131 9
34 132 8
34 133 5
34 134 17
34 135 3
34 136 6
34 137 4
34 138 8
34 139 4
34 140 6
34 141 3
34 142 4
34 143 3
34 144 5
34 145 7
34 146 5
34 147 5
34 148 7
34 149 4
34 150 2
34 151 5
34 152 8
34 153 3
34 154 5
34 155 6
34 156 5
34 157 10
34 158 6
34 159 2
34 160 3
34 161 7
34 162 7
34 163 11
34 164 7
34 165 5
34 166 4
34 167 9
34 168 4
34 169 6
34 170 10
34 171 5
34 172 8
34 173 2
34 174 4
34 175 9
34 176 4
34 177 6
34 178 4
34 179 10
34 180 3
34 181 3
34 182 4
34 183 7
34 184 4
34 185 7
34 186 7
34 187 7
34 188 7
34 189 6
34 190 5
34 191 11
34 192 6
34 193 5
34 194 9
34 195 6
34 196 4
34 197 8
34 198 2
34 199 8
34 200 7
35 13 1
35 22 1
35 57 1
35 92 1
35 99 1
35 104 1
35 106 2
35 134 2
35 139 1
35 153 1
35 162 1
35 187 1
35 188 2
35 198 1
35 199 2
36 4 1
36 53 1
36 57 1
36 63 1
36 68 1
36 104 1
36 114 1
36 123 1
36 139 1
36 169 1
36 171 1
36 180 1
36 199 1
37 5 1
37 20 1
37 26 1
37 39 1
37 58 1
37 59 1
37 61 1
37 75 1
37 115 1
37 117 1
37 122 1
37 123 1
37 148 1
37 175 1
37 197 1
38 33 1
38 34 1
38 46 1
38 68 1
38 78 1
38 83 1
38 84 1
38 93 1
38 159 1
38 179 1
38 190 1
39 14 1
39 41 1
39 71 1
39 84 1
39 87 1
39 93 1
39 134 1
39 157 1
39 167 1
39 174 1
39 185 1
39 198 1
39 200 1
40 6 1
40 35 1
40 51 1
40 52 1
40 58 1
40 61 2
40 90 1
40 94 1
40 98 1
40 126 1
40 155 1
40 162 2
40 187 1
41 5 1
41 11 1
41 29 1
41 37 1
41 43 1
41 56 1
41 65 1
41 87 1
41 99 1
41 131 1
41 137 1
41 138 3
41 165 1
41 180 1
41 187 1
41 190 2
42 7 1
42 23 1
42 31 1
42 37 1
42 43 1
42 46 1
42 54 1
42 76 1
42 115 1
42 154 1
42 181 1
42 186 1
42 190 1
43 1 1
43 36 1
43 59 1
43 77 1
43 97 1
43 99 1
43 115 1
43 132 1
43 169 1
44 15 1
44 88 1
44 93 1
44 94 2
44 99 1
44 118 1
44 121 1
44 134 1
44 167 1
44 174 1
44 176 1
44 186 1
44 187 1
45 10 1
45 33 1
45 42 1
45 52 1
45 54 1
45 66 1
45 135 1
45 138 1
45 144 1
45 175 1
45 180 2
45 191 1
46 13 2
46 20 1
46 34 1
46 45 1
46 46 1
46 48 1
46 62 1
46 63 1
46 72 1
46 97 1
46 113 1
46 130 1
46 133 1
46 135 1
46 145 1
46 154 1
46 171 1
46 184 1
46 185 1
46 186 1
47 12 2
47 18 1
47 26 2
47 63 1
47 70 1
47 77 1
47 106 1
47 110 1
47 116 1
47 136 1
47 150 1
47 159 1
47 162 1
47 173 1
47 193 1
47 200 1
48 17 1
48 36 1
48 48 1
48 81 2
48 114 1
48 123 1
48 131 1
48 191 1
48 192 1
49 21 1
49 24 1
49 41 1
49 54 1
49 63 1
49 68 1
49 70 1
49 79 1
49 80 1
49 98 2
49 104 1
49 114 1
49 119 1
49 123 1
49 140 1
49 153 1
49 157 1
49 182 1
50 11 1
50 31 1
50 32 1
50 37 1
50 40 1
50 49 2
50 50 1
50 98 1
50 105 1
50 132 1
50 134 2
50 135 1
50 149 1
50 185 1
50 196 1
51 1 1
51 4 1
51 7 1
51 35 1
51 60 1
51 65 2
51 71 1
51 78 1
51 88 1
51 113 1
51 138 1
51 141 1
51 161 1
51 170 1
52 14 2
52 17 1
52 27 1
52 36 1
52 46 1
52 62 1
52 67 1
52 71 1
52 73 1
52 78 2
52 101 1
52 127 1
52 152 1
52 163 1
52 176 1
52 177 1
52 191 1
53 4 1
53 8 2
53 19 1
53 26 1
53 32 1
53 68 1
53 88 1
53 92 2
53 117 1
53 130 1
53 134 1
53 142 1
53 147 1
53 156 1
53 167 1
53 180 1
53 185 1
54 2 1
54 9 1
54 29 1
54 55 1
54 67 1
54 75 1
54 79 1
54 80 1
54 83 1
54 95 1
54 111 1
54 112 1
54 128 1
54 132 1
54 137 2
54 138 1
54 154 2
54 192 1
54 193 1
54 197 1
55 19 1
55 54 1
55 63 1
55 81 1
55 93 1
55 109 1
55 117 1
55 134 1
55 145 1
55 179 1
56 10 1
56 24 1
56 26 1
56 32 1
56 54 1
56 64 1
56 70 1
56 86 1
56 88 1
56 93 1
56 107 1
56 129 1
56 134 1
56 137 1
56 160 1
56 166 1
56 189 1
57 11 1
57 13 1
57 14 1
57 81 1
57 98 1
57 104 2
57 110 1
57 119 1
57 128 1
57 129 1
57 134 1
57 139 1
57 140 1
57 141 1
57 155 1
57 161 1
57 176 1
58 23 1
58 26 1
58 37 1
58 63 1
58 72 1
58 88 1
58 114 1
58 124 1
58 138 1
58 142 1
58 156 1
58 175 2
58 193 1
58 194 1
58 196 1
59 20 1
59 29 1
59 43 2
59 44 1
59 52 1
59 59 1
59 79 1
59 94 1
59 135 2
59 149 1
59 152 1
59 163 1
59 182 1
60 23 1
60 128 1
60 148 1
60 157 1
61 48 1
61 54 1
61 74 1
61 94 1
61 109 1
61 119 1
61 170 1
61 179 1
62 9 1
62 16 1
62 31 2
62 45 1
62 59 1
62 66 1
62 78 1
62 90 1
62 92 1
62 97 1
62 106 1
62 107 1
62 111 1
62 129 1
62 179 1
63 1 1
63 7 1
63 23 1
63 35 1
63 41 1
63 53 1
63 55 1
63 62 1
63 68 1
63 76 1
63 88 1
63 89 1
63 90 2
63 106 1
63 121 1
63 126 1
63 127 1
63 130 1
63 140 1
63 158 2
63 182 1
64 17 1
64 38 1
64 40 1
64 41 1
64 44 1
64 59 1
64 60 1
64 61 1
64 102 1
64 112 1
64 117 1
64 126 1
64 128 1
64 137 1
64 149 1
64 169 1
64 173 1
65 1 1
65 34 1
65 59 2
65 100 1
65 104 1
65 111 1
65 141 1
65 162 1
65 163 1
66 8 2
66 17 1
66 27 1
66 45 1
66 49 2
66 61 1
66 67 1
66 69 1
66 79 1
66 124 1
66 128 1
66 143 1
66 149 1
66 151 1
66 186 1
66 187 1
66 192 1
66 199 1
67 39 1
67 53 1
67 57 1
67 63 1
67 81 1
67 86 1
67 114 1
67 135 1
67 142 1
67 148 1
67 149 1
67 150 1
67 152 1
67 154 1
67 158 1
67 177 1
67 179 1
68 1 1
68 3 4
68 4 1
68 6 1
68 7 1
68 10 1
68 11 1
68 14 1
68 15 8
68 17 5
68 18 5
68 19 1
68 23 12
68 24 2
68 26 5
68 28 2
68 29 8
68 30 1
68 32 1
68 36 4
68 42 5
68 44 6
68 46 1
68 47 1
68 48 1
68 49 1
68 50 6
68 53 1
68 54 12
68 58 1
68 60 1
68 62 1
68 64 2
68 66 2
68 67 11
68 68 1
68 70 9
68 71 6
68 72 6
68 73 2
68 75 2
68 76 2
68 77 1
68 78 1
68 80 1
68 83 4
68 84 1
68 89 1
68 90 1
68 91 3
68 92 1
68 93 4
68 97 4
68 99 1
68 103 1
68 105 4
68 107 1
68 108 7
68 109 5
68 110 3
68 112 1
68 117 1
68 118 2
68 119 4
68 120 1
68 121 1
68 122 1
68 125 5
68 127 1
68 128 1
68 129 1
68 131 1
68 132 5
68 134 2
68 137 2
68 140 1
68 144 8
68 145 6
68 146 12
68 150 12
68 151 1
68 152 1
68 153 1
68 155 9
68 158 4
68 161 2
68 162 2
68 163 1
68 164 7
68 166 2
68 167 8
68 168 1
68 170 9
68 173 9
68 174 1
68 176 1
68 177 10
68 178 9
68 179 3
68 182 6
68 183 6
68 187 4
68 189 1
68 192 3
68 194 2
68 196 2
68 197 9
68 198 1
68 200 1
69 1 1
69 5 1
69 6 1
69 8 1
69 9 1
69 13 1
69 14 1
69 15 4
69 17 4
69 18 6
69 19 1
69 21 2
69 23 9
69 24 6
69 26 1
69 27 3
69 28 1
69 29 6
69 30 1
69 31 1
69 32 2
69 36 1
69 37 1
69 38 1
69 42 10
69 43 2
69 44 9
69 48 1
69 49 2
69 50 5
69 51 1
69 52 1
69 53 1
69 54 11
69 56 1
69 60 1
69 64 9
69 65 1
69 67 8
69 69 1
69 70 8
69 71 8
69 72 5
69 75 1
69 80 2
69 81 3
69 83 11
69 86 2
69 87 1
69 89 1
69 90 1
69 91 4
69 92 2
69 93 1
69 97 7
69 98 1
69 99 2
69 100 1
69 103 1
69 104 1
69 106 1
69 108 6
69 109 12
69 110 13
69 112 1
69 114 1
69 118 7
69 119 9
69 121 1
69 123 2
69 125 6
69 127 2
69 128 3
69 129 1
69 130 2
69 132 7
69 133 1
69 135 1
69 136 1
69 137 1
69 138 1
69 140 3
69 144 7
69 145 2
69 146 12
69 148 1
69 150 9
69 155 8
69 156 2
69 158 9
69 159 2
69 161 1
69 162 1
69 164 5
69 166 7
69 167 8
69 168 1
69 169 1
69 170 10
69 171 2
69 173 3
69 174 1
69 176 1
69 177 6
69 178 4
69 179 5
69 182 5
69 183 8
69 185 1
69 187 3
69 189 2
69 192 6
69 193 1
69 195 3
69 197 5
69 198 1
70 1 1
70 2 2
70 4 2
70 5 1
70 6 2
70 8 1
70 9 2
70 12 2
70 13 1
70 15 9
70 17 8
70 18 5
70 20 1
70 22 1
70 23 5
70 24 11
70 26 5
70 29 8
70 36 1
70 37 2
70 38 2
70 42 2
70 44 3
70 49 1
70 50 9
70 52 1
70 54 8
70 57 1
70 59 1
70 60 3
70 64 8
70 67 9
70 69 1
70 70 9
70 71 6
70 72 13
70 77 2
70 78 1
70 81 1
70 83 7
70 84 1
70 89 1
70 91 4
70 95 1
70 96 1
70 97 6
70 98 2
70 99 1
70 102 1
70 103 2
70 105 1
70 107 1
70 108 7
70 109 6
70 110 5
70 112 2
70 114 2
70 118 5
70 119 3
70 120 1
70 122 1
70 124 1
70 125 10
70 126 2
70 131 1
70 132 9
70 133 2
70 134 1
70 136 2
70 137 1
70 144 7
70 145 10
70 146 9
70 148 1
70 149 1
70 150 4
70 153 1
70 155 14
70 156 1
70 157 1
70 158 7
70 159 2
70 160 1
70 161 1
70 164 4
70 166 10
70 167 6
70 169 1
70 170 10
70 171 2
70 172 2
70 173 3
70 177 6
70 178 7
70 179 4
70 182 9
70 183 6
70 185 1
70 187 17
70 190 1
70 192 1
70 193 1
70 197 3
71 1 2
71 5 1
71 6 1
71 7 1
71 10 1
71 14 1
71 15 5
71 17 4
71 18 9
71 23 9
71 24 4
71 26 9
71 27 1
71 28 2
71 29 8
71 30 1
71 32 1
71 33 1
71 36 9
71 37 1
71 40 1
71 41 1
71 42 4
71 43 1
71 44 5
71 46 1
71 47 1
71 50 8
71 52 3
71 53 1
71 54 9
71 55 1
71 56 1
71 57 1
71 58 1
71 59 1
71 60 1
71 63 1
71 64 6
71 66 2
71 67 4
71 70 9
71 71 7
71 72 6
71 76 1
71 78 2
71 81 2
71 83 6
71 88 2
71 89 1
71 91 6
71 95 1
71 97 10
71 100 2
71 101 2
71 107 2
71 108 4
71 109 7
71 110 6
71 113 1
71 114 1
71 116 1
71 117 2
71 118 5
71 119 7
71 121 1
71 123 2
71 125 6
71 126 1
71 127 3
71 129 2
71 130 2
71 131 1
71 132 7
71 135 1
71 136 1
71 137 1
71 143 2
71 144 3
71 145 14
71 146 10
71 148 3
71 149 2
71 150 10
71 153 1
71 155 7
71 158 4
71 161 1
71 163 1
71 164 11
71 166 18
71 167 9
71 168 1
71 170 14
71 173 9
71 174 1
71 177 9
71 178 3
71 179 6
71 182 6
71 183 8
71 187 5
71 192 9
71 193 1
71 197 12
72 5 1
72 7 2
72 8 1
72 9 3
72 14 2
72 15 7
72 17 6
72 18 2
72 19 1
72 22 1
72 23 6
72 24 4
72 25 1
72 26 6
72 28 3
72 29 9
72 32 1
72 33 2
72 34 1
72 35 2
72 36 5
72 38 2
72 39 2
72 42 7
72 44 8
72 47 1
72 48 1
72 49 1
72 50 4
72 52 1
72 54 6
72 55 1
72 57 1
72 58 1
72 60 2
72 64 8
72 67 4
72 70 7
72 71 4
72 72 6
72 74 1
72 75 1
72 81 1
72 82 1
72 83 5
72 85 3
72 88 1
72 90 1
72 91 6
72 95 1
72 97 6
72 99 1
72 100 1
72 104 1
72 105 1
72 106 1
72 108 6
72 109 10
72 110 5
72 112 2
72 113 1
72 116 1
72 118 2
72 119 5
72 124 1
72 125 8
72 129 2
72 130 1
72 131 1
72 132 6
72 138 1
72 139 2
72 140 1
72 142 1
72 144 3
72 145 5
72 146 5
72 147 1
72 148 2
72 150 1
72 152 1
72 153 1
72 155 8
72 156 2
72 163 1
72 164 6
72 166 10
72 167 3
72 168 1
72 170 4
72 171 1
72 173 1
72 174 2
72 176 1
72 177 9
72 178 4
72 179 8
72 182 6
72 183 5
72 186 1
72 187 3
72 188 2
72 192 6
72 194 1
72 196 1
72 197 3
72 198 1
72 199 1
72 200 1
73 2 1
73 3 1
73 5 1
73 6 1
73 7 2
73 8 8
73 10 6
73 11 2
73 12 2
73 19 4
73 24 1
73 27 1
73 29 1
73 30 1
73 31 1
73 32 5
73 33 2
73 37 1
73 41 1
73 45 11
73 46 1
73 47 1
73 48 1
73 49 1
73 50 2
73 51 9
73 53 9
73 58 8
73 59 3
73 60 1
73 63 2
73 65 3
73 67 2
73 73 1
73 74 10
73 76 1
73 80 7
73 81 8
73 87 6
73 88 2
73 92 6
73 94 2
73 95 1
73 98 1
73 99 1
73 101 10
73 102 3
73 106 2
73 107 1
73 109 2
73 111 1
73 112 1
73 117 1
73 121 1
73 122 3
73 124 5
73 125 1
73 127 1
73 128 1
73 129 8
73 130 1
73 131 1
73 135 1
73 140 5
73 142 2
73 144 1
73 147 4
73 148 11
73 149 7
73 150 1
73 152 1
73 154 1
73 155 2
73 156 3
73 158 1
73 159 6
73 160 3
73 161 1
73 165 5
73 167 1
73 168 1
73 169 2
73 170 1
73 172 6
73 173 1
73 174 7
73 175 1
73 176 1
73 177 1
73 179 1
73 180 1
73 181 2
73 185 8
73 186 1
73 187 1
73 189 1
73 190 1
73 191 2
73 193 1
73 194 11
73 196 5
73 199 2
73 200 1
74 6 2
74 8 5
74 10 7
74 11 5
74 14 1
74 19 8
74 23 2
74 24 1
74 26 1
74 28 1
74 30 1
74 32 6
74 33 2
74 35 1
74 37 1
74 38 1
74 39 1
74 40 3
74 41 1
74 43 1
74 45 6
74 49 1
74 50 1
74 51 9
74 53 6
74 54 2
74 58 9
74 63 1
74 65 5
74 66 1
74 72 1
74 73 1
74 74 7
74 77 2
74 80 8
74 81 2
74 83 2
74 85 1
74 87 6
74 88 1
74 90 1
74 91 1
74 92 4
74 93 1
74 94 1
74 95 1
74 96 1
74 99 2
74 100 1
74 101 3
74 102 11
74 103 1
74 107 2
74 111 1
74 113 1
74 115 3
74 117 1
74 118 2
74 124 14
74 125 1
74 126 1
74 128 1
74 129 7
74 139 2
74 140 5
74 144 1
74 145 1
74 146 1
74 147 7
74 148 6
74 149 7
74 152 1
74 154 1
74 155 1
74 156 9
74 158 1
74 159 2
74 160 12
74 161 1
74 163 1
74 164 1
74 165 4
74 167 1
74 168 1
74 172 8
74 174 9
74 177 1
74 178 1
74 179 1
74 181 1
74 183 1
74 184 1
74 185 6
74 186 1
74 187 1
74 188 1
74 189 3
74 190 1
74 192 1
74 194 8
74 195 1
74 196 4
74 198 1
74 200 3
75 6 1
75 7 2
75 8 1
75 9 1
75 11 1
75 15 13
75 17 5
75 18 5
75 19 1
75 20 2
75 23 8
75 24 12
75 25 1
75 26 10
75 27 1
75 29 7
75 33 1
75 36 7
75 39 1
75 40 1
75 42 6
75 44 4
75 45 2
75 47 1
75 48 2
75 50 5
75 52 1
75 54 6
75 56 1
75 59 1
75 63 1
75 64 3
75 66 1
75 67 7
75 68 1
75 70 4
75 71 6
75 72 3
75 73 1
75 76 1
75 77 1
75 80 1
75 81 1
75 82 2
75 83 6
75 87 1
75 88 1
75 89 1
75 90 1
75 91 2
75 92 1
75 94 1
75 95 2
75 97 5
75 100 1
75 104 1
75 105 1
75 106 1
75 107 1
75 108 3
75 109 2
75 110 3
75 112 1
75 114 3
75 116 1
75 118 3
75 119 7
75 120 1
75 124 1
75 125 3
75 126 1
75 128 1
75 132 5
75 134 1
75 137 1
75 139 1
75 140 3
75 141 1
75 142 1
75 144 9
75 145 5
75 146 4
75 147 1
75 149 1
75 150 6
75 151 1
75 154 2
75 155 5
75 156 1
75 157 1
75 158 4
75 164 8
75 166 8
75 167 7
75 169 1
75 170 5
75 172 2
75 173 7
75 177 12
75 178 6
75 179 5
75 180 1
75 182 7
75 183 4
75 184 2
75 187 10
75 188 1
75 189 1
75 191 1
75 192 9
75 197 7
75 199 1
75 200 2
76 1 1
76 2 2
76 3 8
76 4 1
76 5 10
76 8 1
76 16 1
76 17 1
76 18 1
76 27 1
76 28 5
76 30 5
76 35 1
76 36 1
76 37 3
76 38 1
76 42 3
76 43 9
76 45 1
76 48 2
76 49 1
76 52 4
76 53 1
76 54 1
76 55 8
76 59 2
76 60 5
76 61 8
76 63 1
76 64 1
76 65 1
76 66 8
76 67 1
76 68 1
76 71 1
76 72 1
76 73 7
76 74 1
76 75 5
76 79 1
76 82 1
76 85 1
76 88 10
76 90 3
76 93 4
76 97 1
76 98 1
76 99 6
76 101 2
76 102 1
76 103 9
76 105 2
76 107 1
76 108 1
76 109 2
76 111 1
76 112 3
76 113 9
76 114 5
76 120 1
76 127 6
76 129 1
76 130 6
76 132 1
76 133 1
76 134 6
76 136 6
76 138 1
76 141 3
76 143 1
76 144 1
76 145 1
76 146 1
76 147 1
76 148 1
76 149 1
76 151 1
76 153 1
76 154 3
76 161 13
76 163 1
76 167 1
76 168 1
76 169 6
76 171 6
76 172 1
76 174 4
76 176 2
76 177 2
76 180 7
76 183 2
76 184 5
76 193 2
76 194 2
76 195 1
76 196 1
76 197 1
76 198 9
76 199 7
77 3 1
77 5 1
77 6 2
77 8 2
77 9 1
77 11 2
77 13 2
77 14 2
77 15 5
77 17 10
77 18 4
77 23 6
77 24 7
77 26 7
77 28 2
77 29 5
77 31 1
77 33 1
77 34 3
77 35 2
77 36 4
77 37 1
77 41 1
77 42 18
77 43 2
77 44 5
77 46 1
77 47 1
77 50 5
77 54 4
77 59 2
77 61 1
77 64 7
77 65 1
77 66 1
77 67 6
77 68 1
77 70 3
77 71 5
77 72 8
77 75 2
77 77 1
77 78 1
77 79 1
77 81 1
77 83 10
77 84 1
77 87 2
77 89 2
77 91 8
77 92 3
77 93 2
77 97 6
77 101 1
77 104 1
77 106 1
77 107 1
77 108 6
77 109 2
77 110 4
77 111 1
77 112 2
77 114 2
77 115 1
77 118 4
77 119 3
77 125 7
77 126 1
77 132 8
77 135 2
77 137 1
77 139 2
77 144 4
77 145 8
77 146 9
77 149 2
77 150 9
77 151 1
77 152 2
77 155 5
77 156 2
77 158 4
77 159 2
77 160 1
77 162 2
77 164 10
77 166 5
77 167 2
77 168 2
77 169 1
77 170 3
77 172 1
77 173 4
77 175 1
77 177 7
77 178 9
77 179 6
77 182 9
77 183 10
77 186 1
77 187 4
77 190 2
77 191 2
77 192 4
77 195 2
77 197 4
77 198 1
77 199 2
78 1 1
78 3 1
78 6 3
78 7 1
78 10 1
78 11 2
78 13 1
78 15 6
78 17 5
78 18 4
78 21 1
78 23 7
78 24 4
78 25 1
78 26 8
78 27 1
78 29 5
78 30 1
78 31 2
78 33 1
78 36 10
78 39 1
78 40 1
78 42 2
78 44 4
78 45 1
78 47 1
78 48 1
78 49 3
78 50 4
78 51 1
78 54 6
78 56 1
78 58 1
78 59 1
78 61 1
78 62 1
78 64 4
78 67 7
78 69 3
78 70 9
78 71 9
78 72 2
78 73 1
78 76 1
78 79 2
78 83 6
78 90 2
78 91 3
78 92 2
78 93 1
78 94 1
78 96 1
78 97 10
78 99 3
78 102 1
78 108 6
78 109 4
78 110 3
78 111 1
78 115 1
78 116 1
78 117 1
78 118 13
78 119 6
78 123 1
78 124 1
78 125 7
78 126 1
78 127 1
78 129 1
78 131 2
78 132 6
78 138 1
78 139 3
78 140 2
78 143 1
78 144 3
78 145 4
78 146 7
78 147 3
78 150 4
78 152 1
78 153 3
78 154 2
78 155 10
78 156 1
78 158 4
78 159 1
78 160 1
78 161 1
78 162 1
78 163 1
78 164 10
78 166 7
78 167 7
78 169 1
78 170 9
78 172 3
78 173 6
78 174 2
78 175 1
78 177 6
78 178 9
78 179 5
78 182 3
78 183 6
78 184 1
78 185 1
78 186 1
78 187 5
78 191 1
78 192 6
78 193 1
78 195 2
78 196 1
78 197 7
78 200 1
79 3 1
79 4 1
79 7 2
79 8 10
79 10 6
79 11 5
79 19 4
79 23 1
79 27 1
79 29 1
79 32 4
79 33 5
79 34 1
79 36 1
79 37 1
79 40 2
79 42 1
79 45 6
79 47 1
79 51 7
79 53 6
79 55 1
79 56 1
79 58 6
79 59 1
79 61 1
79 62 1
79 64 1
79 65 14
79 68 2
79 69 1
79 70 1
79 72 1
79 73 1
79 74 4
79 78 2
79 80 11
79 81 3
79 82 1
79 83 4
79 85 1
79 87 3
79 88 1
79 89 2
79 91 2
79 92 6
79 96 1
79 97 2
79 100 1
79 101 3
79 102 6
79 105 1
79 110 1
79 111 1
79 115 1
79 116 1
79 119 1
79 122 2
79 124 4
79 125 1
79 126 2
79 128 1
79 129 7
79 130 1
79 131 1
79 134 2
79 135 2
79 136 1
79 138 3
79 140 5
79 147 3
79 148 7
79 149 3
79 150 1
79 153 2
79 156 7
79 158 1
79 159 5
79 160 1
79 161 3
79 163 1
79 165 7
79 166 1
79 170 2
79 171 1
79 172 7
79 173 1
79 174 6
79 175 1
79 182 1
79 183 1
79 184 1
79 185 5
79 188 2
79 191 1
79 193 1
79 194 2
79 195 1
79 196 8
79 197 1
79 199 1
79 200 1
80 5 1
80 6 1
80 10 2
80 13 2
80 14 2
80 15 5
80 16 1
80 17 3
80 18 2
80 20 1
80 22 1
80 23 3
80 24 3
80 25 1
80 26 1
80 27 2
80 29 9
80 32 1
80 36 4
80 37 2
80 38 2
80 42 2
80 43 2
80 44 3
80 49 1
80 50 8
80 53 1
80 54 3
80 55 1
80 57 1
80 58 1
80 59 1
80 60 1
80 61 1
80 62 1
80 64 5
80 67 5
80 70 3
80 71 9
80 72 2
80 73 1
80 74 2
80 75 1
80 77 1
80 80 1
80 81 2
80 83 6
80 86 1
80 91 3
80 92 1
80 93 1
80 94 1
80 96 5
80 97 11
80 99 1
80 100 2
80 101 2
80 102 1
80 104 1
80 106 1
80 108 3
80 109 2
80 110 4
80 113 1
80 114 1
80 118 2
80 119 4
80 122 1
80 123 1
80 124 1
80 125 5
80 126 2
80 127 1
80 132 4
80 133 1
80 134 1
80 136 2
80 137 1
80 139 1
80 140 1
80 141 3
80 143 2
80 144 7
80 145 4
80 146 7
80 149 1
80 150 6
80 151 1
80 152 1
80 155 8
80 158 2
80 161 2
80 162 2
80 164 7
80 165 2
80 166 6
80 167 4
80 168 3
80 169 2
80 170 4
80 173 8
80 177 3
80 178 6
80 179 7
80 181 3
80 182 7
80 183 6
80 184 1
80 185 1
80 186 1
80 187 6
80 188 1
80 190 1
80 192 6
80 193 1
80 196 1
80 197 4
80 198 2
80 199 1
81 1 6
81 2 2
81 4 4
81 6 6
81 7 6
81 9 2
81 10 1
81 12 6
81 13 3
81 14 5
81 16 5
81 20 6
81 21 3
81 23 2
81 24 1
81 25 5
81 27 6
81 28 1
81 31 5
81 32 1
81 33 1
81 34 6
81 35 9
81 37 6
81 38 9
81 39 5
81 40 8
81 41 8
81 46 1
81 47 1
81 48 7
81 49 6
81 51 1
81 56 7
81 57 7
81 59 8
81 62 5
81 63 10
81 65 1
81 68 8
81 69 7
81 73 2
81 75 1
81 76 2
81 77 5
81 78 5
81 79 5
81 82 4
81 83 1
81 84 11
81 85 6
81 86 8
81 89 4
81 92 2
81 94 4
81 95 5
81 96 4
81 98 3
81 99 2
81 100 6
81 101 2
81 103 1
81 104 3
81 105 5
81 106 15
81 107 11
81 111 4
81 114 2
81 115 4
81 116 8
81 117 7
81 119 5
81 120 7
81 121 7
81 122 5
81 123 7
81 126 5
81 128 6
81 129 1
81 130 1
81 131 8
81 133 4
81 134 2
81 135 4
81 136 1
81 138 6
81 139 5
81 142 2
81 143 3
81 145 1
81 150 1
81 151 3
81 152 4
81 153 3
81 155 1
81 157 6
81 161 2
81 162 7
81 163 1
81 166 1
81 167 1
81 169 1
81 171 1
81 172 1
81 174 1
81 175 8
81 176 1
81 180 2
81 181 4
81 182 2
81 183 1
81 184 1
81 185 1
81 186 4
81 188 1
81 189 5
81 190 8
81 191 7
81 193 9
81 194 2
81 195 6
81 199 1
81 200 4
82 1 1
82 3 1
82 5 1
82 6 1
82 7 2
82 8 9
82 10 3
82 11 16
82 14 1
82 17 2
82 19 6
82 20 1
82 27 1
82 28 1
82 29 1
82 32 12
82 33 3
82 37 1
82 39 2
82 43 1
82 44 1
82 45 18
82 46 1
82 47 1
82 48 1
82 51 7
82 53 15
82 54 2
82 56 3
82 58 4
82 61 1
82 63 1
82 64 1
82 65 5
82 66 2
82 67 2
82 70 1
82 72 3
82 73 1
82 74 7
82 75 2
82 78 1
82 79 2
82 80 9
82 81 9
82 83 1
82 84 1
82 87 5
82 88 1
82 89 1
82 92 14
82 94 3
82 99 1
82 101 12
82 102 13
82 106 1
82 109 6
82 114 2
82 115 1
82 117 1
82 118 1
82 121 1
82 122 2
82 123 1
82 124 8
82 129 8
82 130 2
82 131 1
82 135 1
82 136 1
82 138 1
82 140 9
82 144 1
82 147 14
82 148 13
82 149 7
82 152 4
82 153 1
82 156 9
82 157 1
82 158 1
82 159 4
82 160 11
82 161 1
82 162 1
82 164 1
82 165 10
82 167 2
82 170 1
82 172 4
82 174 12
82 175 2
82 176 2
82 177 2
82 180 1
82 181 1
82 183 1
82 185 6
82 186 1
82 188 1
82 189 1
82 191 1
82 194 6
82 196 5
82 198 1
82 199 2
82 200 1
83 8 13
83 10 6
83 11 8
83 13 1
83 14 1
83 18 1
83 19 2
83 22 1
83 25 1
83 26 1
83 27 1
83 29 2
83 32 11
83 33 5
83 35 1
83 39 1
83 40 1
83 43 1
83 45 9
83 48 2
83 50 1
83 51 9
83 53 4
83 54 1
83 55 2
83 58 6
83 59 1
83 60 1
83 63 2
83 65 7
83 67 1
83 71 1
83 73 1
83 74 8
83 75 1
83 78 1
83 79 1
83 80 10
83 81 9
83 83 1
83 84 1
83 87 8
83 90 1
83 91 1
83 92 14
83 95 2
83 99 2
83 101 5
83 102 4
83 103 1
83 108 1
83 110 1
83 111 1
83 114 1
83 115 3
83 124 5
83 129 7
83 131 1
83 132 1
83 135 1
83 137 2
83 138 1
83 140 6
83 141 1
83 142 1
83 143 2
83 146 1
83 147 4
83 148 5
83 149 15
83 150 1
83 151 2
83 153 1
83 154 1
83 155 1
83 156 7
83 157 1
83 159 5
83 160 8
83 162 1
83 165 12
83 166 2
83 168 1
83 170 2
83 172 10
83 173 2
83 174 6
83 177 1
83 178 2
83 180 1
83 185 3
83 186 2
83 194 7
83 195 1
83 196 5
83 197 1
84 4 1
84 7 2
84 8 12
84 9 1
84 10 5
84 11 10
84 14 1
84 15 1
84 19 9
84 20 1
84 28 1
84 32 8
84 33 2
84 36 2
84 40 1
84 42 1
84 43 1
84 45 7
84 48 1
84 49 1
84 51 8
84 52 2
84 53 7
84 58 11
84 59 2
84 64 1
84 65 8
84 66 1
84 67 1
84 68 1
84 69 1
84 70 1
84 72 2
84 74 5
84 75 2
84 76 2
84 78 1
84 79 1
84 80 4
84 81 4
84 84 1
84 87 3
84 88 1
84 89 2
84 90 1
84 92 9
84 97 1
84 98 2
84 99 1
84 100 3
84 101 7
84 102 6
84 105 1
84 106 1
84 107 1
84 108 1
84 109 2
84 110 1
84 111 1
84 113 1
84 114 1
84 116 1
84 118 1
84 119 1
84 121 1
84 123 1
84 124 4
84 125 2
84 128 1
84 129 7
84 131 1
84 133 1
84 134 1
84 140 6
84 141 1
84 143 1
84 144 3
84 147 11
84 148 6
84 149 8
84 150 2
84 152 1
84 156 12
84 159 3
84 160 11
84 165 2
84 166 1
84 168 1
84 172 1
84 173 1
84 174 6
84 182 1
84 185 8
84 186 1
84 190 1
84 193 1
84 194 4
84 196 9
84 197 1
85 2 10
85 3 9
85 5 8
85 7 2
85 9 1
85 11 1
85 13 1
85 16 1
85 17 1
85 21 1
85 23 1
85 24 1
85 28 9
85 30 4
85 32 1
85 34 2
85 35 1
85 36 1
85 43 7
85 46 1
85 48 5
85 49 1
85 51 3
85 52 6
85 53 1
85 54 1
85 55 4
85 59 1
85 60 3
85 61 10
85 62 1
85 66 10
85 70 2
85 71 1
85 73 11
85 75 4
85 78 1
85 79 2
85 81 1
85 87 1
85 88 8
85 89 1
85 90 5
85 92 1
85 93 4
85 97 1
85 99 2
85 100 1
85 101 1
85 102 1
85 103 4
85 107 2
85 112 4
85 113 8
85 114 11
85 116 1
85 117 1
85 121 1
85 122 2
85 124 1
85 126 1
85 127 4
85 130 8
85 133 2
85 134 2
85 135 2
85 136 7
85 141 12
85 144 2
85 145 1
85 148 1
85 149 2
85 151 1
85 154 5
85 155 2
85 160 1
85 161 11
85 168 3
85 169 6
85 170 1
85 171 11
85 174 1
85 176 6
85 177 1
85 180 7
85 181 1
85 183 1
85 184 10
85 185 2
85 187 1
85 188 2
85 190 1
85 191 1
85 194 1
85 195 2
85 198 5
85 199 4
85 200 1
86 1 2
86 3 2
86 7 1
86 8 2
86 9 1
86 10 3
86 11 7
86 15 1
86 17 1
86 19 2
86 21 2
86 23 1
86 25 2
86 26 1
86 31 1
86 32 6
86 33 2
86 39 1
86 41 1
86 45 9
86 50 3
86 51 3
86 52 2
86 53 14
86 55 1
86 57 1
86 58 5
86 61 2
86 63 1
86 65 6
86 70 1
86 74 4
86 77 1
86 78 2
86 80 7
86 81 13
86 82 1
86 87 10
86 89 1
86 91 2
86 92 3
86 96 3
86 97 1
86 98 1
86 99 2
86 100 3
86 101 7
86 102 6
86 105 2
86 109 2
86 111 1
86 112 1
86 113 1
86 118 1
86 119 1
86 121 2
86 122 2
86 124 4
86 129 5
86 130 1
86 131 1
86 132 2
86 136 1
86 138 1
86 139 2
86 140 12
86 141 1
86 144 1
86 146 2
86 147 6
86 148 9
86 149 4
86 150 2
86 151 1
86 152 1
86 156 6
86 157 1
86 159 6
86 160 7
86 164 1
86 165 5
86 166 1
86 167 1
86 170 1
86 171 1
86 172 6
86 173 3
86 174 3
86 176 1
86 182 3
86 185 7
86 191 2
86 193 1
86 194 12
86 195 2
86 196 8
86 197 1
86 200 1
87 8 2
87 11 2
87 12 1
87 13 1
87 15 6
87 16 2
87 17 7
87 18 6
87 23 14
87 24 7
87 25 1
87 26 7
87 27 1
87 29 13
87 30 1
87 31 1
87 35 1
87 36 7
87 39 2
87 40 1
87 42 10
87 43 1
87 44 8
87 50 7
87 51 1
87 52 1
87 54 8
87 55 1
87 57 1
87 58 1
87 59 1
87 60 1
87 61 1
87 62 1
87 63 1
87 64 3
87 65 2
87 67 13
87 70 9
87 71 2
87 72 6
87 73 1
87 75 1
87 77 2
87 80 1
87 81 1
87 83 4
87 84 2
87 85 1
87 87 1
87 89 1
87 91 4
87 93 1
87 94 1
87 95 1
87 97 3
87 99 5
87 100 1
87 107 2
87 108 7
87 109 13
87 110 6
87 111 4
87 117 1
87 118 9
87 119 9
87 124 1
87 125 4
87 131 1
87 132 6
87 133 1
87 136 1
87 137 1
87 144 7
87 145 3
87 146 7
87 147 1
87 150 9
87 151 1
87 155 2
87 158 11
87 163 2
87 164 9
87 165 1
87 166 7
87 167 4
87 168 1
87 169 2
87 170 9
87 172 2
87 173 5
87 177 4
87 178 7
87 179 3
87 180 1
87 182 10
87 183 7
87 184 1
87 186 1
87 187 5
87 192 8
87 197 7
87 200 2
88 1 10
88 3 1
88 4 8
88 6 4
88 7 9
88 9 4
88 11 1
88 12 4
88 13 5
88 14 6
88 15 1
88 16 5
88 17 1
88 18 1
88 20 2
88 21 6
88 22 1
88 23 2
88 24 1
88 25 7
88 27 9
88 28 2
88 29 1
88 31 2
88 32 1
88 33 1
88 34 3
88 35 7
88 37 8
88 38 4
88 39 6
88 40 7
88 41 7
88 42 1
88 43 1
88 44 2
88 46 12
88 47 5
88 48 2
88 49 7
88 50 1
88 52 1
88 54 2
88 56 6
88 57 7
88 58 1
88 59 5
88 60 1
88 62 6
88 63 8
88 65 1
88 67 1
88 68 2
88 69 6
88 70 1
88 72 3
88 73 2
88 74 1
88 76 4
88 77 5
88 78 5
88 79 7
88 81 1
88 82 4
88 83 1
88 84 7
88 85 4
88 87 1
88 88 1
88 89 12
88 90 1
88 92 1
88 94 3
88 95 9
88 96 1
88 98 9
88 99 5
88 100 4
88 102 1
88 103 2
88 104 3
88 105 6
88 106 3
88 107 5
88 110 1
88 111 6
88 113 1
88 115 5
88 116 11
88 117 11
88 120 4
88 121 5
88 122 6
88 123 3
88 124 1
88 126 5
88 128 7
88 130 1
88 131 6
88 133 1
88 135 6
88 137 11
88 138 5
88 139 3
88 140 3
88 142 3
88 143 3
88 144 2
88 145 1
88 146 2
88 151 7
88 152 10
88 153 4
88 157 4
88 160 1
88 162 4
88 163 8
88 167 2
88 169 1
88 170 1
88 174 1
88 175 3
88 176 1
88 177 1
88 178 1
88 179 1
88 181 6
88 182 1
88 183 1
88 184 1
88 186 8
88 187 1
88 188 7
88 189 7
88 190 2
88 191 5
88 192 2
88 193 5
88 195 3
88 196 2
88 197 1
88 199 2
88 200 7
89 8 3
89 10 2
89 13 1
89 15 7
89 16 4
89 17 3
89 18 8
89 19 1
89 22 1
89 23 8
89 24 12
89 26 4
89 29 4
89 34 1
89 35 1
89 36 7
89 37 2
89 41 1
89 42 4
89 43 2
89 44 2
89 45 1
89 46 4
89 50 5
89 51 1
89 52 1
89 54 1
89 58 1
89 59 1
89 61 1
89 62 1
89 64 5
89 65 1
89 67 7
89 68 1
89 69 2
89 70 1
89 71 5
89 72 3
89 75 2
89 78 1
89 80 2
89 81 2
89 83 5
89 84 2
89 86 1
89 88 3
89 89 4
89 90 1
89 91 4
89 92 1
89 93 2
89 94 2
89 97 6
89 99 1
89 100 1
89 102 1
89 104 2
89 107 2
89 108 8
89 109 10
89 110 2
89 111 1
89 112 1
89 114 2
89 117 1
89 118 6
89 119 7
89 120 1
89 125 11
89 127 1
89 128 2
89 131 1
89 132 6
89 134 1
89 135 1
89 137 1
89 141 1
89 144 6
89 145 3
89 146 10
89 147 1
89 149 4
89 150 6
89 153 1
89 155 6
89 157 2
89 158 4
89 159 1
89 160 2
89 161 1
89 164 7
89 166 3
89 167 4
89 169 2
89 170 11
89 171 1
89 173 7
89 176 1
89 177 4
89 178 4
89 179 8
89 182 8
89 183 5
89 187 4
89 189 1
89 190 2
89 192 2
89 193 1
89 194 1
89 195 1
89 196 1
89 197 10
89 200 1
90 4 1
90 6 1
90 7 1
90 9 1
90 11 2
90 13 3
90 14 1
90 15 7
90 17 7
90 18 5
90 19 3
90 20 1
90 21 1
90 23 8
90 24 4
90 25 1
90 26 4
90 27 1
90 29 11
90 30 2
90 31 2
90 32 3
90 34 1
90 36 5
90 37 1
90 40 2
90 41 3
90 42 5
90 43 1
90 44 7
90 45 2
90 48 1
90 50 7
90 51 2
90 54 9
90 56 1
90 58 1
90 62 1
90 64 4
90 67 5
90 70 8
90 71 4
90 72 10
90 73 2
90 74 2
90 75 1
90 76 1
90 83 6
90 87 1
90 90 1
90 91 8
90 97 6
90 98 2
90 103 2
90 104 1
90 106 1
90 108 5
90 109 6
90 110 5
90 113 1
90 117 2
90 118 4
90 119 8
90 123 1
90 125 8
90 129 1
90 130 1
90 132 3
90 133 2
90 134 4
90 136 1
90 137 1
90 138 1
90 143 1
90 144 4
90 145 5
90 146 6
90 149 1
90 150 5
90 155 5
90 158 8
90 161 2
90 164 8
90 166 11
90 167 4
90 170 9
90 173 5
90 174 4
90 177 5
90 178 2
90 179 3
90 182 4
90 183 4
90 186 1
90 187 8
90 191 1
90 192 7
90 193 1
90 195 1
90 196 2
90 197 7
90 198 1
90 199 2
91 2 1
91 3 1
91 6 1
91 8 8
91 10 7
91 11 5
91 13 1
91 19 4
91 23 1
91 26 1
91 32 4
91 33 6
91 38 1
91 39 1
91 40 1
91 43 1
91 45 7
91 46 1
91 48 1
91 49 1
91 50 1
91 51 4
91 53 11
91 57 1
91 58 7
91 59 1
91 60 1
91 61 1
91 64 2
91 65 8
91 66 1
91 67 1
91 68 1
91 69 1
91 70 1
91 71 1
91 73 1
91 74 10
91 76 1
91 78 1
91 80 9
91 81 9
91 85 1
91 87 5
91 90 1
91 91 1
91 92 6
91 93 1
91 94 1
91 97 1
91 100 2
91 101 7
91 102 8
91 103 1
91 108 1
91 112 1
91 117 1
91 120 1
91 121 1
91 123 2
91 124 11
91 126 1
91 129 11
91 130 1
91 132 1
91 135 2
91 137 2
91 140 5
91 142 1
91 143 1
91 147 3
91 148 4
91 149 8
91 151 2
91 152 1
91 155 1
91 156 10
91 157 1
91 158 2
91 159 6
91 160 4
91 161 1
91 162 1
91 164 1
91 165 6
91 168 1
91 171 1
91 172 6
91 174 4
91 178 1
91 180 1
91 184 1
91 185 10
91 186 1
91 187 1
91 189 1
91 192 2
91 194 7
91 196 9
91 197 1
91 198 1
91 199 1
92 1 1
92 2 1
92 4 1
92 5 3
92 6 1
92 14 1
92 16 1
92 17 6
92 18 7
92 20 1
92 23 9
92 24 6
92 26 2
92 29 7
92 34 1
92 36 9
92 37 1
92 42 4
92 44 11
92 47 1
92 48 1
92 50 8
92 54 4
92 55 1
92 56 1
92 60 2
92 63 2
92 64 6
92 67 6
92 68 1
92 69 1
92 70 9
92 71 7
92 72 5
92 76 1
92 80 1
92 83 5
92 85 1
92 88 3
92 89 1
92 91 4
92 97 7
92 102 1
92 103 1
92 104 1
92 106 1
92 107 1
92 108 14
92 109 6
92 110 5
92 118 4
92 119 4
92 121 1
92 122 1
92 124 1
92 125 5
92 126 1
92 127 3
92 129 1
92 130 1
92 131 2
92 132 6
92 133 3
92 138 2
92 144 5
92 145 6
92 146 7
92 147 1
92 148 1
92 149 3
92 150 4
92 151 1
92 155 6
92 158 9
92 159 1
92 162 1
92 164 11
92 165 1
92 166 14
92 167 5
92 169 2
92 170 5
92 172 1
92 173 4
92 175 2
92 177 9
92 178 5
92 179 8
92 180 1
92 181 1
92 182 7
92 183 5
92 184 1
92 187 4
92 188 1
92 190 1
92 191 1
92 192 10
92 193 1
92 197 6
92 198 1
93 1 4
93 2 1
93 4 10
93 6 4
93 7 2
93 9 6
93 11 1
93 12 9
93 13 6
93 14 4
93 15 1
93 16 3
93 20 9
93 21 4
93 22 11
93 23 1
93 24 1
93 25 10
93 27 9
93 28 1
93 30 1
93 31 12
93 32 2
93 33 2
93 34 7
93 35 6
93 37 11
93 38 6
93 39 6
93 40 7
93 41 12
93 46 5
93 47 5
93 48 8
93 49 7
93 50 2
93 55 1
93 56 4
93 57 7
93 58 3
93 59 8
93 62 6
93 63 9
93 66 1
93 68 3
93 69 10
93 70 1
93 71 1
93 73 1
93 74 3
93 75 2
93 76 6
93 77 4
93 78 6
93 79 6
93 82 5
93 83 1
93 84 10
93 85 6
93 86 3
93 89 9
93 90 2
93 91 1
93 93 2
93 94 7
93 95 6
93 96 4
93 97 1
93 98 6
93 100 4
93 101 1
93 103 1
93 104 6
93 105 3
93 106 10
93 107 8
93 108 1
93 109 1
93 111 9
93 115 6
93 116 9
93 117 12
93 120 8
93 121 12
93 122 4
93 123 2
93 125 4
93 126 11
93 128 7
93 130 1
93 131 8
93 133 5
93 135 9
93 136 1
93 137 6
93 138 10
93 139 10
93 141 1
93 142 11
93 143 7
93 144 1
93 148 2
93 151 6
93 152 6
93 153 2
93 155 1
93 157 6
93 158 1
93 159 1
93 162 4
93 163 4
93 164 1
93 167 3
93 172 1
93 173 1
93 174 2
93 175 6
93 176 1
93 178 1
93 181 9
93 182 1
93 183 1
93 185 1
93 186 3
93 188 8
93 189 16
93 190 8
93 191 4
93 192 2
93 193 4
93 194 3
93 195 7
93 196 1
93 200 8
94 2 1
94 4 1
94 6 1
94 12 3
94 13 2
94 14 1
94 15 8
94 17 2
94 18 5
94 19 1
94 23 5
94 24 10
94 26 1
94 27 1
94 28 1
94 29 2
94 30 1
94 33 1
94 35 1
94 36 9
94 37 1
94 38 1
94 42 3
94 43 3
94 44 10
94 45 1
94 46 1
94 48 2
94 50 7
94 54 2
94 57 2
94 61 1
94 62 1
94 64 3
94 65 2
94 67 3
94 68 1
94 69 1
94 70 4
94 71 7
94 72 9
94 74 1
94 75 2
94 76 1
94 79 1
94 83 10
94 84 2
94 86 1
94 90 2
94 91 6
94 94 1
94 96 1
94 97 5
94 98 1
94 104 2
94 105 2
94 107 1
94 108 8
94 109 6
94 110 8
94 111 1
94 113 2
94 118 3
94 119 3
94 122 1
94 124 2
94 125 5
94 127 2
94 129 1
94 130 1
94 131 1
94 132 4
94 139 1
94 143 1
94 144 8
94 145 4
94 146 8
94 149 2
94 150 4
94 155 8
94 157 1
94 158 8
94 159 2
94 160 2
94 163 1
94 164 7
94 165 1
94 166 6
94 167 2
94 170 15
94 171 3
94 172 1
94 173 5
94 174 1
94 175 1
94 176 1
94 177 3
94 178 6
94 179 4
94 181 1
94 182 9
94 183 3
94 184 1
94 187 6
94 190 3
94 192 4
94 196 2
94 197 4
94 198 1
94 200 3
95 3 1
95 5 1
95 6 1
95 7 2
95 9 1
95 10 1
95 11 1
95 15 5
95 16 2
95 17 9
95 18 5
95 19 1
95 20 1
95 23 5
95 24 3
95 26 9
95 29 3
95 31 1
95 33 2
95 35 1
95 36 6
95 38 1
95 39 2
95 41 1
95 42 5
95 44 7
95 48 2
95 50 4
95 51 2
95 54 7
95 55 1
95 56 1
95 57 3
95 60 1
95 62 1
95 64 10
95 65 2
95 66 1
95 67 3
95 70 8
95 71 3
95 72 5
95 79 1
95 80 1
95 82 2
95 83 2
95 87 1
95 89 1
95 90 1
95 91 8
95 93 1
95 94 1
95 95 2
95 97 7
95 98 1
95 99 1
95 100 2
95 102 1
95 103 1
95 105 1
95 108 7
95 109 5
95 110 3
95 111 2
95 112 2
95 114 4
95 115 3
95 117 2
95 118 8
95 119 4
95 120 2
95 121 1
95 123 1
95 125 3
95 126 1
95 128 1
95 132 5
95 134 2
95 136 3
95 137 3
95 138 1
95 141 1
95 144 10
95 145 7
95 146 6
95 150 8
95 151 2
95 152 1
95 153 2
95 155 4
95 157 2
95 158 8
95 161 1
95 164 4
95 166 2
95 167 2
95 168 1
95 170 9
95 172 1
95 173 5
95 177 6
95 178 5
95 179 6
95 182 9
95 183 9
95 184 2
95 186 1
95 187 8
95 192 7
95 193 1
95 194 1
95 197 7
95 198 1
96 1 3
96 3 1
96 7 1
96 9 2
96 10 1
96 15 10
96 17 11
96 18 11
96 22 1
96 23 5
96 24 8
96 26 5
96 27 2
96 29 9
96 31 1
96 32 1
96 34 1
96 35 1
96 36 5
96 38 1
96 42 10
96 44 4
96 47 2
96 50 5
96 52 2
96 54 7
96 55 2
96 56 2
96 64 5
96 65 1
96 66 1
96 67 10
96 68 2
96 69 1
96 70 7
96 71 13
96 72 6
96 73 1
96 74 1
96 76 1
96 77 1
96 78 2
96 80 1
96 81 1
96 82 1
96 83 7
96 84 1
96 86 2
96 88 1
96 91 5
96 92 2
96 93 2
96 96 1
96 97 11
96 98 1
96 99 1
96 100 3
96 107 1
96 108 8
96 109 3
96 110 5
96 116 1
96 117 1
96 118 4
96 119 15
96 121 1
96 122 1
96 125 4
96 126 1
96 128 1
96 130 1
96 131 1
96 132 5
96 135 1
96 139 1
96 142 1
96 143 1
96 144 6
96 145 5
96 146 6
96 150 5
96 155 2
96 157 2
96 158 10
96 164 4
96 166 8
96 167 4
96 170 8
96 173 6
96 174 1
96 177 5
96 178 5
96 179 3
96 180 1
96 182 5
96 183 6
96 187 5
96 188 2
96 190 1
96 192 7
96 193 3
96 197 7
96 200 1
97 1 3
97 2 1
97 4 1
97 6 4
97 7 9
97 9 2
97 10 1
97 12 12
97 13 6
97 14 8
97 16 5
97 17 2
97 20 5
97 21 11
97 22 5
97 25 8
97 27 2
97 28 1
97 29 1
97 30 2
97 31 3
97 34 1
97 35 6
97 37 3
97 38 2
97 39 5
97 40 5
97 41 6
97 42 1
97 43 1
97 46 3
97 47 7
97 48 7
97 49 1
97 54 1
97 56 5
97 57 5
97 59 3
97 60 1
97 62 5
97 63 8
97 65 1
97 68 5
97 69 5
97 70 1
97 71 1
97 74 1
97 75 1
97 76 6
97 77 3
97 78 6
97 79 5
97 80 3
97 81 1
97 82 2
97 84 6
97 85 2
97 86 2
97 87 1
97 88 1
97 89 7
97 91 1
97 92 1
97 94 5
97 95 4
97 96 4
97 98 3
97 99 1
97 100 3
97 102 1
97 103 1
97 104 5
97 105 5
97 106 2
97 107 10
97 110 1
97 111 1
97 112 1
97 113 1
97 115 3
97 116 5
97 117 3
97 120 2
97 121 2
97 122 4
97 123 5
97 126 3
97 127 1
97 128 6
97 131 2
97 133 4
97 134 1
97 135 8
97 136 2
97 137 7
97 138 7
97 139 9
97 140 3
97 141 2
97 142 4
97 143 12
97 144 2
97 148 1
97 149 1
97 151 3
97 152 4
97 153 2
97 154 1
97 157 5
97 158 1
97 159 1
97 161 2
97 162 7
97 163 7
97 165 2
97 166 1
97 169 1
97 170 1
97 172 2
97 173 1
97 175 4
97 176 1
97 178 1
97 181 6
97 184 1
97 186 8
97 188 8
97 189 2
97 190 4
97 191 8
97 192 1
97 193 4
97 194 1
97 195 5
97 196 1
97 199 1
97 200 6
98 1 1
98 8 1
98 10 1
98 11 1
98 12 2
98 13 1
98 15 6
98 17 10
98 18 6
98 19 1
98 20 1
98 23 3
98 24 7
98 25 1
98 26 9
98 29 3
98 36 2
98 37 1
98 38 1
98 39 1
98 40 1
98 42 8
98 43 1
98 44 8
98 47 1
98 48 3
98 49 1
98 50 3
98 54 8
98 55 1
98 56 1
98 58 1
98 60 1
98 62 1
98 63 2
98 64 6
98 65 1
98 67 4
98 70 7
98 71 4
98 72 3
98 73 2
98 74 3
98 75 1
98 80 4
98 82 1
98 83 5
98 84 1
98 86 1
98 87 1
98 88 2
98 91 6
98 92 1
98 93 2
98 94 2
98 97 8
98 101 2
98 106 1
98 107 2
98 108 5
98 109 5
98 110 3
98 115 1
98 117 2
98 118 4
98 119 5
98 122 1
98 125 4
98 129 1
98 130 1
98 131 2
98 132 9
98 135 1
98 143 1
98 144 9
98 145 4
98 146 6
98 149 1
98 150 9
98 151 1
98 154 2
98 155 7
98 157 2
98 158 7
98 162 1
98 164 6
98 166 5
98 167 3
98 168 1
98 170 2
98 171 4
98 173 8
98 174 3
98 175 1
98 176 2
98 177 7
98 178 8
98 179 4
98 180 1
98 182 4
98 183 8
98 187 8
98 189 1
98 192 5
98 195 1
98 197 8
99 1 4
99 4 4
99 6 9
99 7 7
99 9 4
99 12 7
99 13 14
99 14 7
99 16 10
99 17 1
99 18 2
99 19 2
99 20 7
99 21 5
99 22 5
99 23 3
99 24 1
99 25 2
99 27 1
99 28 1
99 29 2
99 31 4
99 32 1
99 33 1
99 34 6
99 35 7
99 37 4
99 38 3
99 39 5
99 40 7
99 41 13
99 43 1
99 46 4
99 47 12
99 48 8
99 49 6
99 56 6
99 57 4
99 58 1
99 59 9
99 62 4
99 63 3
99 65 1
99 68 8
99 69 9
99 72 1
99 75 1
99 76 10
99 77 2
99 78 2
99 79 11
99 82 9
99 84 4
99 85 3
99 86 7
99 88 1
99 89 9
99 91 1
99 93 1
99 94 3
99 95 6
99 96 10
99 97 1
99 98 4
99 99 2
99 100 6
99 101 1
99 103 1
99 104 5
99 105 3
99 106 3
99 107 1
99 111 9
99 114 1
99 115 6
99 116 2
99 117 4
99 119 1
99 120 3
99 121 4
99 122 2
99 123 6
99 126 5
99 128 5
99 131 7
99 133 6
99 134 1
99 135 1
99 137 6
99 138 6
99 139 5
99 141 1
99 142 2
99 143 2
99 145 2
99 146 4
99 150 1
99 151 2
99 152 4
99 153 2
99 154 1
99 157 9
99 158 1
99 160 1
99 161 1
99 162 4
99 163 6
99 164 1
99 167 2
99 168 2
99 169 3
99 170 2
99 171 2
99 173 2
99 175 6
99 179 1
99 181 3
99 184 1
99 186 1
99 187 1
99 188 4
99 189 4
99 190 6
99 191 9
99 192 1
99 193 5
99 195 3
99 199 2
99 200 6
100 1 1
100 7 1
100 8 2
100 10 4
100 11 7
100 12 2
100 13 1
100 15 1
100 16 1
100 19 7
100 20 1
100 22 2
100 25 1
100 28 1
100 29 1
100 31 1
100 32 5
100 33 13
100 34 2
100 35 1
100 37 2
100 38 1
100 39 1
100 40 1
100 42 1
100 43 1
100 44 1
100 45 5
100 46 1
100 47 1
100 48 1
100 50 2
100 51 1
100 53 6
100 54 2
100 57 1
100 58 8
100 64 1
100 65 10
100 66 1
100 74 5
100 75 1
100 76 2
100 79 1
100 80 7
100 81 5
100 82 1
100 83 1
100 86 5
100 87 6
100 88 1
100 90 2
100 91 1
100 92 2
100 95 1
100 97 1
100 98 1
100 99 2
100 100 1
100 101 6
100 102 4
100 108 1
100 112 1
100 116 2
100 119 2
100 120 1
100 121 1
100 122 1
100 124 7
100 127 1
100 128 1
100 129 6
100 134 1
100 135 1
100 140 5
100 141 2
100 145 1
100 147 5
100 148 7
100 149 7
100 150 1
100 155 1
100 156 11
100 159 1
100 160 8
100 162 1
100 164 2
100 165 5
100 168 1
100 169 1
100 172 2
100 174 3
100 176 3
100 181 1
100 182 1
100 183 1
100 185 2
100 186 1
100 189 2
100 194 14
100 196 8
100 197 1
101 7 1
101 8 1
101 9 1
101 12 1
101 13 1
101 15 7
101 17 5
101 18 8
101 21 2
101 23 8
101 24 13
101 25 1
101 26 3
101 29 8
101 30 2
101 34 1
101 35 3
101 36 9
101 38 2
101 39 1
101 40 1
101 41 2
101 42 5
101 44 16
101 46 1
101 48 1
101 49 1
101 50 6
101 51 1
101 53 1
101 54 5
101 55 1
101 56 1
101 58 1
101 61 1
101 64 3
101 65 1
101 67 3
101 68 1
101 70 6
101 71 4
101 72 6
101 73 2
101 74 1
101 75 1
101 77 1
101 78 2
101 81 2
101 83 2
101 86 1
101 87 1
101 91 4
101 92 2
101 94 2
101 95 1
101 97 6
101 99 1
101 100 1
101 102 1
101 103 2
101 104 1
101 108 4
101 109 3
101 110 2
101 111 1
101 113 3
101 114 2
101 115 1
101 116 2
101 118 8
101 119 7
101 120 1
101 122 2
101 123 1
101 125 3
101 126 2
101 129 2
101 130 1
101 131 6
101 132 3
101 134 1
101 137 1
101 138 1
101 139 1
101 140 1
101 141 1
101 142 1
101 143 1
101 144 4
101 145 6
101 146 8
101 147 1
101 149 2
101 150 7
101 151 1
101 153 1
101 154 2
101 155 4
101 156 2
101 158 6
101 159 1
101 161 1
101 164 5
101 165 1
101 166 5
101 167 4
101 168 1
101 169 2
101 170 4
101 173 9
101 176 1
101 177 2
101 178 9
101 179 7
101 182 3
101 183 9
101 187 5
101 189 1
101 191 1
101 192 3
101 193 2
101 194 1
101 196 1
101 197 10
101 198 2
101 199 2
101 200 2
102 1 1
102 3 2
102 4 1
102 5 1
102 7 1
102 10 1
102 15 7
102 17 5
102 18 5
102 22 1
102 23 10
102 24 9
102 26 4
102 29 4
102 32 1
102 33 1
102 35 1
102 36 1
102 38 1
102 41 2
102 42 8
102 43 1
102 44 5
102 45 1
102 46 1
102 50 7
102 54 4
102 57 1
102 58 1
102 60 1
102 61 1
102 63 1
102 64 5
102 67 11
102 70 2
102 71 5
102 72 3
102 73 1
102 83 1
102 84 1
102 85 2
102 87 1
102 90 2
102 91 1
102 95 2
102 97 4
102 99 2
102 102 1
102 103 1
102 104 1
102 106 1
102 108 7
102 109 5
102 110 3
102 111 2
102 118 2
102 119 4
102 120 1
102 124 1
102 125 4
102 127 1
102 129 1
102 132 6
102 134 1
102 136 1
102 138 2
102 139 2
102 144 4
102 145 3
102 146 4
102 147 1
102 150 3
102 151 1
102 153 2
102 155 8
102 156 2
102 157 1
102 158 4
102 160 1
102 162 1
102 164 5
102 166 5
102 167 2
102 170 7
102 172 2
102 173 5
102 174 1
102 175 1
102 177 4
102 178 17
102 179 7
102 182 7
102 183 8
102 184 2
102 185 1
102 187 2
102 188 2
102 190 2
102 191 1
102 192 6
102 193 1
102 194 2
102 195 1
102 196 1
102 197 8
102 200 1
103 2 2
103 5 1
103 8 7
103 10 5
103 11 7
103 15 1
103 19 12
103 20 1
103 21 1
103 27 1
103 28 2
103 31 3
103 32 8
103 33 4
103 35 1
103 40 2
103 41 1
103 43 1
103 44 1
103 45 12
103 48 1
103 51 5
103 53 12
103 54 1
103 56 1
103 57 1
103 58 3
103 59 1
103 60 1
103 62 1
103 65 7
103 69 1
103 71 1
103 73 1
103 74 12
103 79 1
103 80 1
103 81 5
103 83 2
103 85 1
103 86 1
103 87 7
103 88 1
103 90 1
103 92 6
103 95 1
103 99 1
103 101 6
103 102 10
103 103 1
103 106 3
103 107 1
103 110 1
103 112 2
103 114 4
103 115 1
103 117 1
103 119 1
103 122 1
103 124 4
103 128 2
103 129 3
103 130 1
103 131 1
103 134 4
103 140 2
103 141 1
103 142 2
103 144 1
103 145 4
103 147 9
103 148 7
103 149 9
103 155 1
103 156 10
103 157 1
103 158 1
103 159 2
103 160 5
103 163 1
103 165 9
103 166 1
103 169 1
103 170 2
103 171 1
103 172 6
103 174 8
103 176 1
103 177 1
103 178 1
103 180 1
103 181 1
103 185 8
103 186 2
103 189 1
103 191 2
103 193 1
103 194 6
103 196 5
103 198 1
104 1 2
104 2 1
104 3 1
104 10 1
104 11 1
104 15 5
104 16 1
104 17 6
104 18 6
104 19 2
104 21 1
104 22 1
104 23 7
104 24 5
104 26 8
104 27 1
104 28 1
104 29 2
104 33 1
104 34 3
104 36 6
104 41 1
104 42 4
104 43 1
104 44 8
104 45 1
104 49 1
104 50 2
104 53 1
104 54 5
104 55 3
104 56 2
104 57 2
104 58 1
104 59 2
104 61 2
104 64 5
104 67 6
104 68 2
104 70 4
104 71 5
104 72 3
104 73 1
104 74 2
104 76 1
104 80 2
104 81 1
104 82 1
104 83 2
104 85 2
104 86 1
104 91 8
104 92 1
104 93 1
104 95 1
104 96 1
104 97 3
104 100 2
104 101 1
104 102 1
104 103 1
104 104 1
104 106 1
104 108 3
104 109 3
104 110 9
104 115 1
104 118 5
104 119 5
104 123 1
104 125 5
104 127 1
104 128 1
104 129 2
104 130 1
104 132 4
104 133 1
104 137 1
104 138 1
104 139 1
104 143 2
104 144 10
104 145 6
104 146 8
104 147 2
104 148 1
104 150 5
104 151 1
104 152 2
104 154 1
104 155 6
104 158 6
104 159 1
104 162 2
104 164 5
104 166 8
104 167 3
104 168 3
104 170 1
104 173 7
104 174 2
104 177 7
104 178 6
104 179 2
104 182 4
104 183 3
104 184 1
104 185 1
104 187 9
104 189 2
104 190 1
104 191 1
104 192 6
104 197 5
104 198 2
104 200 1
105 1 1
105 3 1
105 5 2
105 7 2
105 8 8
105 10 4
105 11 4
105 12 1
105 13 1
105 18 3
105 19 4
105 25 1
105 27 1
105 28 2
105 30 1
105 31 1
105 32 6
105 33 8
105 35 1
105 36 1
105 38 1
105 40 1
105 42 1
105 43 1
105 45 4
105 46 1
105 47 1
105 50 1
105 51 2
105 53 5
105 54 1
105 58 5
105 59 1
105 61 2
105 63 1
105 65 7
105 67 1
105 68 3
105 69 1
105 70 1
105 71 1
105 72 1
105 73 2
105 74 7
105 79 2
105 80 6
105 81 1
105 86 2
105 87 7
105 91 1
105 92 3
105 94 1
105 95 2
105 98 2
105 101 7
105 102 5
105 105 1
105 106 1
105 109 1
105 113 3
105 114 1
105 116 1
105 117 1
105 118 4
105 119 1
105 120 2
105 121 1
105 122 2
105 124 2
105 125 3
105 129 4
105 133 1
105 134 1
105 137 1
105 138 1
105 139 2
105 140 10
105 144 1
105 146 1
105 147 5
105 148 1
105 149 4
105 150 1
105 152 2
105 154 1
105 155 1
105 156 5
105 157 1
105 159 3
105 160 3
105 162 1
105 163 1
105 164 1
105 165 8
105 166 1
105 171 1
105 172 4
105 174 11
105 175 2
105 178 1
105 180 1
105 181 1
105 183 2
105 184 2
105 185 4
105 188 1
105 193 1
105 194 6
105 196 4
105 198 2
106 2 9
106 3 4
106 4 1
106 5 7
106 7 1
106 9 1
106 14 1
106 15 2
106 16 1
106 18 1
106 20 1
106 26 1
106 28 4
106 29 3
106 30 6
106 32 1
106 33 1
106 35 3
106 39 2
106 40 1
106 43 6
106 46 1
106 47 1
106 50 1
106 52 10
106 55 2
106 57 1
106 60 4
106 61 6
106 65 1
106 66 5
106 71 1
106 72 1
106 73 5
106 74 1
106 75 4
106 79 1
106 85 1
106 86 3
106 88 3
106 90 12
106 93 7
106 95 2
106 97 1
106 99 5
106 100 1
106 101 1
106 103 3
106 107 1
106 109 4
106 112 2
106 113 4
106 114 7
106 117 2
106 120 1
106 123 1
106 124 1
106 127 6
106 130 3
106 133 1
106 134 3
106 135 1
106 136 5
106 141 5
106 142 1
106 143 1
106 145 1
106 146 1
106 147 3
106 148 2
106 149 1
106 150 2
106 152 2
106 154 5
106 156 1
106 158 1
106 159 1
106 160 1
106 161 3
106 166 2
106 168 6
106 169 2
106 171 3
106 172 1
106 176 5
106 179 2
106 180 4
106 184 6
106 187 1
106 188 2
106 189 2
106 190 1
106 192 1
106 193 1
106 194 1
106 196 1
106 198 7
106 199 5
107 2 4
107 3 7
107 5 9
107 6 1
107 8 1
107 10 1
107 13 2
107 14 1
107 15 1
107 19 1
107 20 1
107 22 1
107 24 3
107 25 1
107 26 2
107 28 2
107 29 2
107 30 4
107 31 1
107 32 2
107 35 1
107 36 1
107 39 1
107 43 4
107 48 1
107 52 6
107 53 1
107 55 6
107 56 1
107 59 1
107 60 5
107 61 4
107 63 1
107 66 5
107 68 1
107 73 4
107 75 9
107 76 2
107 78 1
107 79 1
107 86 1
107 87 2
107 88 6
107 89 1
107 90 3
107 92 3
107 93 7
107 94 1
107 97 1
107 99 7
107 103 6
107 108 1
107 110 1
107 111 3
107 112 3
107 113 8
107 114 6
107 115 1
107 117 1
107 118 1
107 119 1
107 121 1
107 122 1
107 123 2
107 124 2
107 125 1
107 127 10
107 128 1
107 129 1
107 130 2
107 131 2
107 132 1
107 134 3
107 136 5
107 137 1
107 138 1
107 140 1
107 141 9
107 143 1
107 147 2
107 148 1
107 151 3
107 154 5
107 156 1
107 157 1
107 160 1
107 161 2
107 164 2
107 166 1
107 168 1
107 169 13
107 171 2
107 173 1
107 175 2
107 176 2
107 177 1
107 179 2
107 180 5
107 181 1
107 182 1
107 184 5
107 185 1
107 187 3
107 188 1
107 193 1
107 194 2
107 195 2
107 198 3
107 199 4
107 200 2
108 1 7
108 3 1
108 4 2
108 6 5
108 7 4
108 9 3
108 10 1
108 12 2
108 13 2
108 14 5
108 15 2
108 16 5
108 17 2
108 20 11
108 21 4
108 22 6
108 24 1
108 25 4
108 26 1
108 27 7
108 29 1
108 30 2
108 31 8
108 34 3
108 35 8
108 37 4
108 38 3
108 39 8
108 40 7
108 41 11
108 43 1
108 46 5
108 47 3
108 48 2
108 49 5
108 54 1
108 56 7
108 57 3
108 59 4
108 60 1
108 61 1
108 62 8
108 63 4
108 65 1
108 66 1
108 67 2
108 68 5
108 69 5
108 70 1
108 71 2
108 74 1
108 76 11
108 77 5
108 78 6
108 79 5
108 82 3
108 83 2
108 84 3
108 85 1
108 86 6
108 87 2
108 88 1
108 89 5
108 90 1
108 91 1
108 94 8
108 95 6
108 96 5
108 98 8
108 99 1
108 100 2
108 101 2
108 104 5
108 105 12
108 106 3
108 107 6
108 108 1
108 109 1
108 111 7
108 114 1
108 115 6
108 116 1
108 117 6
108 120 3
108 121 3
108 122 8
108 123 9
108 126 8
108 127 1
108 128 6
108 130 2
108 131 4
108 133 6
108 134 2
108 135 4
108 136 1
108 137 5
108 138 3
108 139 5
108 141 1
108 142 2
108 143 10
108 144 2
108 145 2
108 149 1
108 151 4
108 152 5
108 153 2
108 154 1
108 157 11
108 158 1
108 160 1
108 162 8
108 163 7
108 167 2
108 168 2
108 171 1
108 175 9
108 181 4
108 182 1
108 183 1
108 186 6
108 188 5
108 189 6
108 190 6
108 191 4
108 192 1
108 193 6
108 195 10
108 197 2
108 200 3
109 2 2
109 4 1
109 5 2
109 8 9
109 10 7
109 11 6
109 15 1
109 16 1
109 17 1
109 19 7
109 23 3
109 26 2
109 28 1
109 32 2
109 33 4
109 34 1
109 37 1
109 38 1
109 40 1
109 42 1
109 45 6
109 46 1
109 48 1
109 51 7
109 52 2
109 53 12
109 57 2
109 58 3
109 59 1
109 65 3
109 66 1
109 67 1
109 69 1
109 71 1
109 73 3
109 74 6
109 76 1
109 77 1
109 80 3
109 81 11
109 85 1
109 86 1
109 87 7
109 89 1
109 90 1
109 92 5
109 93 1
109 94 1
109 101 7
109 102 4
109 103 1
109 105 1
109 106 2
109 108 2
109 109 2
109 112 1
109 118 1
109 119 1
109 122 2
109 124 1
109 125 1
109 126 1
109 128 1
109 129 8
109 130 2
109 132 1
109 140 9
109 146 2
109 147 4
109 148 5
109 149 7
109 150 1
109 156 6
109 158 1
109 159 6
109 160 11
109 161 1
109 165 4
109 167 1
109 172 6
109 173 1
109 174 4
109 175 1
109 176 1
109 177 1
109 178 1
109 179 2
109 183 1
109 185 4
109 186 1
109 187 2
109 190 1
109 194 4
109 196 8
109 197 2
109 198 1
109 199 1
110 1 2
110 3 3
110 4 2
110 8 9
110 10 2
110 11 7
110 14 1
110 19 4
110 21 1
110 22 1
110 25 2
110 29 1
110 32 13
110 33 9
110 36 2
110 38 1
110 39 3
110 40 1
110 43 2
110 45 4
110 46 2
110 48 3
110 49 1
110 50 1
110 51 4
110 52 1
110 53 1
110 55 1
110 58 5
110 60 3
110 65 9
110 66 2
110 67 3
110 69 1
110 70 1
110 71 1
110 72 2
110 73 2
110 74 6
110 75 1
110 78 1
110 79 1
110 80 8
110 81 12
110 83 1
110 84 1
110 87 4
110 91 1
110 92 6
110 96 1
110 99 1
110 101 1
110 102 5
110 104 1
110 105 2
110 108 1
110 109 1
110 111 1
110 114 1
110 115 1
110 120 2
110 124 2
110 126 2
110 127 1
110 128 1
110 129 3
110 130 1
110 131 1
110 139 1
110 140 11
110 142 1
110 143 1
110 144 2
110 147 5
110 148 9
110 149 4
110 155 1
110 156 7
110 157 1
110 158 1
110 159 8
110 160 9
110 163 1
110 165 8
110 169 1
110 172 3
110 174 11
110 175 1
110 178 4
110 183 4
110 184 2
110 185 8
110 186 1
110 189 1
110 191 1
110 192 1
110 193 1
110 194 7
110 195 1
110 196 8
110 197 1
110 198 1
110 199 2
111 2 1
111 5 1
111 7 3
111 8 7
111 9 1
111 10 8
111 11 6
111 13 1
111 17 1
111 19 5
111 23 1
111 25 1
111 28 1
111 32 2
111 33 6
111 34 3
111 35 1
111 37 1
111 40 2
111 42 2
111 44 1
111 45 4
111 47 1
111 53 3
111 56 1
111 57 1
111 58 4
111 59 1
111 61 1
111 63 1
111 64 1
111 65 13
111 67 1
111 68 2
111 72 1
111 74 10
111 77 1
111 78 1
111 79 1
111 80 3
111 81 2
111 83 2
111 86 1
111 87 4
111 92 5
111 93 1
111 95 2
111 97 1
111 99 1
111 100 1
111 101 8
111 102 3
111 105 1
111 106 1
111 111 2
111 112 2
111 113 3
111 114 1
111 124 10
111 125 3
111 126 1
111 129 6
111 130 1
111 132 3
111 134 1
111 136 1
111 137 2
111 138 2
111 140 15
111 143 1
111 144 1
111 145 1
111 146 1
111 147 8
111 148 2
111 149 18
111 151 2
111 153 1
111 156 5
111 158 1
111 159 3
111 160 6
111 163 1
111 164 2
111 165 8
111 166 1
111 168 1
111 171 1
111 172 7
111 174 2
111 178 1
111 179 1
111 182 1
111 184 1
111 185 3
111 186 1
111 187 2
111 194 6
111 195 1
111 196 6
111 200 1
112 1 2
112 4 3
112 8 1
112 9 1
112 10 1
112 13 1
112 15 10
112 17 5
112 18 6
112 20 2
112 23 4
112 24 9
112 25 2
112 26 5
112 29 7
112 31 1
112 33 2
112 35 1
112 36 9
112 37 1
112 38 1
112 40 1
112 42 7
112 43 2
112 44 8
112 47 2
112 48 1
112 49 1
112 50 5
112 53 1
112 54 3
112 58 1
112 62 2
112 64 4
112 67 10
112 70 3
112 71 4
112 72 3
112 76 2
112 80 1
112 83 7
112 91 5
112 92 1
112 97 4
112 98 1
112 101 1
112 103 1
112 105 2
112 108 7
112 109 8
112 110 2
112 111 1
112 113 1
112 116 2
112 118 10
112 119 6
112 120 2
112 122 1
112 123 1
112 125 3
112 127 1
112 128 1
112 129 1
112 130 2
112 131 1
112 132 6
112 134 2
112 135 1
112 136 1
112 137 2
112 142 2
112 144 1
112 145 4
112 146 4
112 147 1
112 148 3
112 150 4
112 155 5
112 156 1
112 158 8
112 160 1
112 162 1
112 163 1
112 164 2
112 165 1
112 166 5
112 167 4
112 170 4
112 173 3
112 174 1
112 177 6
112 178 10
112 179 4
112 182 14
112 183 6
112 186 1
112 187 4
112 188 1
112 190 2
112 192 7
112 197 6
112 200 1
113 6 1
113 7 1
113 8 1
113 10 1
113 11 1
113 15 4
113 17 4
113 18 6
113 23 3
113 24 4
113 26 4
113 27 1
113 28 1
113 29 7
113 30 1
113 32 1
113 36 3
113 37 1
113 38 1
113 39 3
113 42 10
113 43 1
113 44 10
113 45 1
113 47 3
113 50 12
113 51 1
113 54 10
113 56 1
113 59 2
113 64 6
113 66 1
113 67 5
113 68 2
113 69 1
113 70 2
113 71 5
113 72 2
113 74 1
113 76 1
113 77 1
113 78 1
113 79 1
113 83 7
113 89 2
113 90 3
113 91 8
113 97 10
113 98 1
113 102 1
113 103 1
113 105 1
113 107 2
113 108 4
113 109 16
113 110 13
113 118 3
113 119 8
113 120 1
113 121 1
113 122 1
113 124 3
113 125 5
113 128 2
113 132 8
113 138 2
113 142 1
113 143 1
113 144 10
113 145 2
113 146 6
113 150 9
113 153 1
113 155 4
113 156 1
113 157 1
113 158 7
113 163 1
113 164 9
113 165 2
113 166 5
113 167 8
113 169 1
113 170 4
113 172 2
113 173 5
113 177 9
113 178 4
113 179 6
113 181 1
113 182 10
113 183 4
113 185 2
113 186 1
113 187 7
113 189 1
113 191 2
113 192 9
113 193 2
113 194 1
113 195 2
113 196 1
113 197 6
113 198 1
113 199 1
114 2 1
114 4 2
114 6 1
114 9 2
114 15 8
114 17 2
114 18 8
114 23 5
114 24 10
114 25 1
114 26 8
114 29 3
114 30 1
114 32 1
114 33 1
114 35 2
114 36 2
114 37 1
114 38 3
114 39 1
114 40 1
114 42 10
114 44 3
114 45 1
114 46 1
114 47 2
114 48 1
114 49 1
114 50 5
114 51 1
114 53 1
114 54 11
114 56 3
114 58 1
114 64 11
114 66 1
114 67 8
114 68 1
114 70 8
114 71 6
114 72 4
114 74 1
114 75 3
114 77 2
114 78 1
114 79 1
114 81 1
114 83 9
114 85 1
114 91 4
114 93 2
114 94 2
114 96 2
114 97 9
114 99 3
114 103 2
114 108 5
114 109 15
114 110 3
114 111 1
114 113 1
114 115 1
114 118 3
114 119 3
114 123 1
114 124 1
114 125 5
114 127 1
114 128 1
114 129 2
114 132 11
114 135 1
114 139 1
114 140 1
114 142 1
114 143 1
114 144 3
114 145 5
114 146 7
114 147 1
114 149 2
114 150 7
114 151 1
114 152 1
114 154 1
114 155 4
114 157 1
114 158 3
114 160 1
114 164 6
114 165 1
114 166 8
114 167 4
114 169 1
114 170 6
114 171 1
114 173 3
114 175 1
114 176 2
114 177 6
114 178 7
114 179 5
114 181 1
114 182 6
114 183 4
114 184 2
114 185 1
114 187 11
114 188 1
114 190 1
114 192 8
114 193 1
114 197 14
115 1 1
115 2 1
115 3 1
115 5 2
115 12 1
115 15 6
115 17 7
115 18 7
115 19 1
115 23 3
115 24 3
115 25 1
115 26 4
115 29 7
115 33 1
115 35 1
115 36 4
115 42 11
115 44 6
115 46 2
115 50 4
115 54 3
115 55 1
115 56 1
115 57 1
115 63 1
115 64 3
115 65 1
115 67 6
115 69 1
115 70 10
115 71 6
115 72 5
115 73 1
115 76 1
115 77 1
115 79 3
115 81 1
115 83 5
115 86 1
115 90 1
115 91 7
115 94 2
115 97 6
115 99 1
115 100 1
115 104 1
115 105 2
115 106 1
115 107 2
115 108 2
115 109 4
115 110 4
115 116 1
115 118 5
115 119 9
115 121 1
115 123 1
115 124 2
115 125 6
115 126 1
115 127 2
115 130 2
115 132 7
115 133 1
115 134 1
115 139 1
115 144 5
115 145 3
115 146 9
115 147 1
115 150 4
115 152 2
115 153 1
115 155 7
115 156 1
115 158 6
115 159 2
115 160 1
115 161 2
115 162 2
115 164 5
115 166 7
115 167 5
115 168 1
115 169 1
115 170 5
115 172 1
115 173 3
115 177 11
115 178 7
115 179 7
115 180 2
115 181 5
115 182 6
115 183 5
115 187 8
115 190 1
115 192 10
115 196 1
115 197 5
115 200 1
116 1 1
116 4 1
116 7 1
116 8 1
116 9 1
116 10 1
116 11 1
116 15 4
116 16 1
116 17 9
116 18 3
116 23 3
116 24 6
116 25 2
116 26 6
116 29 5
116 30 1
116 32 1
116 33 4
116 35 2
116 37 1
116 38 1
116 40 2
116 42 8
116 44 10
116 45 1
116 46 1
116 48 1
116 50 5
116 51 1
116 54 4
116 57 3
116 58 1
116 59 2
116 60 1
116 63 2
116 64 4
116 67 7
116 70 5
116 71 3
116 72 4
116 74 1
116 75 1
116 76 1
116 78 2
116 79 1
116 83 8
116 88 2
116 91 5
116 92 1
116 96 2
116 97 4
116 98 1
116 99 2
116 100 2
116 101 1
116 104 1
116 105 1
116 106 2
116 108 4
116 109 8
116 110 4
116 113 1
116 116 2
116 118 5
116 119 7
116 124 1
116 125 8
116 126 1
116 131 1
116 132 9
116 133 1
116 134 2
116 135 1
116 136 1
116 138 2
116 143 1
116 144 8
116 145 3
116 146 2
116 147 3
116 150 3
116 151 1
116 155 9
116 158 10
116 160 1
116 162 1
116 164 6
116 165 1
116 166 7
116 167 3
116 168 1
116 169 1
116 170 3
116 171 1
116 173 5
116 175 1
116 177 8
116 178 8
116 179 5
116 180 2
116 182 11
116 183 3
116 184 1
116 185 1
116 186 1
116 187 7
116 190 1
116 191 1
116 192 7
116 197 6
116 198 1
116 199 2
117 1 5
117 3 1
117 4 2
117 6 4
117 7 8
117 9 7
117 12 5
117 13 5
117 15 1
117 16 9
117 17 2
117 19 2
117 20 10
117 21 11
117 22 4
117 25 7
117 27 6
117 30 2
117 31 10
117 33 3
117 34 6
117 35 5
117 36 1
117 37 7
117 38 6
117 39 7
117 40 3
117 41 3
117 42 1
117 43 1
117 45 3
117 46 13
117 47 7
117 48 8
117 49 7
117 50 1
117 51 1
117 52 2
117 54 3
117 55 1
117 56 6
117 57 6
117 59 4
117 61 1
117 62 3
117 63 7
117 65 1
117 68 8
117 69 5
117 72 4
117 75 1
117 76 4
117 77 4
117 78 12
117 79 8
117 82 7
117 84 7
117 85 7
117 86 7
117 87 2
117 89 11
117 90 1
117 91 1
117 92 2
117 93 1
117 94 7
117 95 8
117 96 4
117 98 7
117 100 3
117 101 1
117 102 1
117 103 2
117 104 5
117 105 7
117 106 3
117 107 8
117 108 1
117 110 1
117 111 7
117 113 1
117 115 6
117 116 9
117 117 6
117 119 1
117 120 6
117 121 3
117 122 7
117 123 5
117 126 5
117 128 9
117 129 1
117 131 4
117 133 2
117 135 4
117 136 2
117 137 4
117 138 13
117 139 6
117 141 1
117 142 4
117 143 5
117 148 1
117 151 1
117 152 5
117 153 3
117 154 1
117 155 1
117 157 3
117 162 6
117 163 3
117 164 1
117 165 1
117 169 1
117 170 2
117 171 1
117 174 2
117 175 16
117 176 2
117 181 4
117 182 1
117 183 1
117 184 1
117 186 4
117 187 1
117 188 4
117 189 5
117 190 5
117 191 6
117 192 1
117 193 4
117 194 1
117 195 10
117 200 10
118 1 9
118 4 3
118 6 5
118 7 8
118 8 1
118 9 7
118 12 9
118 13 7
118 14 3
118 16 5
118 20 8
118 21 7
118 22 8
118 25 3
118 27 8
118 28 2
118 30 1
118 31 4
118 33 1
118 34 5
118 35 2
118 36 1
118 37 5
118 38 6
118 39 4
118 40 2
118 41 9
118 42 1
118 46 9
118 47 4
118 48 3
118 49 6
118 50 1
118 51 2
118 56 4
118 57 5
118 58 1
118 59 6
118 61 1
118 62 3
118 63 5
118 66 1
118 68 3
118 69 7
118 71 1
118 76 2
118 77 8
118 78 7
118 79 4
118 82 4
118 83 1
118 84 2
118 85 1
118 86 6
118 87 1
118 88 3
118 89 2
118 90 2
118 94 6
118 95 8
118 96 7
118 98 6
118 100 7
118 103 1
118 104 1
118 105 6
118 106 3
118 107 8
118 109 1
118 111 9
118 113 1
118 115 11
118 116 9
118 117 6
118 119 1
118 120 4
118 121 6
118 122 8
118 123 7
118 124 1
118 125 1
118 126 6
118 128 1
118 129 1
118 130 2
118 131 6
118 133 6
118 135 4
118 136 2
118 137 9
118 138 6
118 139 9
118 142 6
118 143 4
118 144 1
118 145 1
118 146 1
118 148 2
118 149 1
118 151 3
118 152 11
118 153 10
118 154 1
118 155 2
118 156 1
118 157 5
118 159 1
118 162 6
118 163 2
118 164 1
118 167 2
118 168 2
118 169 1
118 172 1
118 175 10
118 176 1
118 180 2
118 181 3
118 182 4
118 183 1
118 184 1
118 186 4
118 187 1
118 188 8
118 189 4
118 190 2
118 191 2
118 193 6
118 195 10
118 198 1
118 199 1
118 200 5
119 1 1
119 2 1
119 10 1
119 12 1
119 14 2
119 15 12
119 16 1
119 17 6
119 18 5
119 19 1
119 20 1
119 23 5
119 24 1
119 26 2
119 29 2
119 31 1
119 32 3
119 33 1
119 34 1
119 36 9
119 38 2
119 42 7
119 44 6
119 47 1
119 48 1
119 50 6
119 54 3
119 55 1
119 58 1
119 59 2
119 60 1
119 64 7
119 67 4
119 70 3
119 71 6
119 72 3
119 73 3
119 76 1
119 77 1
119 79 2
119 81 2
119 82 2
119 83 3
119 84 1
119 85 3
119 86 1
119 88 1
119 91 6
119 94 2
119 95 1
119 97 6
119 100 4
119 101 1
119 103 1
119 106 1
119 108 7
119 109 5
119 110 7
119 113 2
119 115 1
119 117 2
119 118 8
119 119 8
119 125 4
119 127 1
119 128 1
119 129 1
119 132 6
119 135 2
119 138 1
119 140 1
119 143 1
119 144 3
119 145 10
119 146 6
119 147 2
119 149 1
119 150 4
119 155 6
119 157 1
119 158 4
119 159 2
119 160 1
119 161 1
119 163 1
119 164 7
119 166 1
119 167 6
119 169 1
119 170 5
119 173 5
119 176 1
119 177 4
119 178 4
119 179 4
119 180 1
119 182 6
119 183 5
119 187 2
119 190 1
119 192 4
119 193 1
119 195 1
119 197 1
119 200 1
120 1 4
120 4 2
120 6 1
120 7 5
120 9 5
120 12 3
120 13 1
120 14 7
120 16 6
120 18 1
120 19 3
120 20 1
120 21 5
120 22 4
120 25 8
120 27 3
120 30 1
120 31 5
120 33 4
120 34 4
120 35 7
120 36 1
120 37 4
120 38 12
120 39 9
120 40 6
120 41 8
120 42 1
120 44 3
120 46 4
120 47 7
120 48 5
120 49 2
120 50 1
120 52 2
120 53 1
120 55 1
120 56 7
120 57 2
120 58 1
120 59 3
120 62 5
120 63 4
120 64 4
120 65 1
120 68 5
120 69 8
120 70 2
120 71 1
120 72 1
120 73 1
120 76 10
120 77 1
120 78 6
120 79 1
120 81 1
120 82 2
120 84 9
120 85 9
120 86 15
120 87 1
120 88 1
120 89 6
120 92 1
120 94 5
120 95 4
120 96 1
120 97 3
120 98 4
120 99 2
120 100 7
120 102 1
120 104 6
120 105 9
120 106 6
120 107 2
120 108 1
120 111 6
120 113 1
120 115 4
120 116 6
120 117 5
120 120 1
120 121 8
120 122 7
120 123 6
120 126 10
120 128 5
120 131 4
120 133 3
120 135 3
120 137 1
120 138 3
120 139 7
120 141 2
120 142 6
120 143 3
120 144 1
120 148 1
120 149 2
120 151 5
120 152 7
120 153 8
120 157 2
120 158 1
120 162 3
120 163 5
120 164 2
120 165 1
120 171 1
120 172 1
120 173 1
120 175 7
120 176 1
120 177 1
120 178 1
120 181 6
120 185 1
120 186 7
120 188 6
120 189 9
120 190 5
120 191 4
120 193 2
120 194 1
120 195 8
120 196 2
120 199 1
120 200 12
121 4 1
121 6 1
121 10 1
121 11 1
121 12 2
121 13 1
121 15 10
121 17 7
121 18 8
121 19 1
121 22 2
121 23 10
121 24 6
121 26 4
121 27 1
121 29 8
121 33 1
121 36 6
121 37 2
121 39 1
121 42 7
121 44 10
121 45 1
121 47 1
121 50 5
121 51 1
121 53 1
121 54 2
121 56 1
121 59 2
121 60 1
121 63 1
121 64 5
121 67 7
121 68 1
121 70 2
121 71 3
121 72 11
121 77 1
121 78 1
121 83 3
121 84 1
121 85 1
121 88 2
121 90 1
121 91 8
121 92 2
121 96 2
121 97 10
121 98 2
121 99 2
121 100 1
121 102 1
121 103 1
121 108 3
121 109 9
121 110 4
121 113 3
121 115 1
121 118 7
121 119 5
121 121 1
121 125 5
121 128 1
121 130 2
121 132 11
121 137 1
121 139 1
121 140 1
121 144 3
121 145 4
121 146 12
121 149 1
121 150 7
121 155 7
121 158 5
121 160 1
121 161 1
121 164 7
121 166 5
121 167 3
121 170 8
121 172 1
121 173 9
121 177 5
121 178 5
121 179 7
121 182 7
121 183 3
121 187 5
121 189 1
121 190 1
121 192 5
121 193 2
121 195 1
121 196 1
121 197 9
121 199 1
121 200 2
122 4 1
122 8 3
122 9 2
122 10 5
122 11 9
122 12 1
122 15 1
122 16 1
122 19 5
122 21 1
122 23 1
122 30 1
122 31 1
122 32 3
122 33 7
122 34 1
122 35 2
122 36 1
122 37 1
122 43 1
122 45 10
122 46 2
122 48 1
122 49 1
122 50 1
122 51 5
122 52 1
122 53 7
122 54 1
122 55 1
122 58 2
122 60 1
122 62 1
122 63 2
122 65 3
122 67 2
122 69 1
122 73 1
122 74 4
122 75 1
122 79 2
122 80 7
122 81 3
122 83 1
122 85 1
122 86 2
122 87 4
122 88 2
122 91 2
122 92 7
122 94 2
122 95 1
122 96 1
122 101 5
122 102 3
122 103 1
122 106 2
122 107 1
122 109 2
122 111 1
122 112 2
122 115 1
122 116 1
122 120 1
122 121 1
122 124 5
122 126 1
122 129 1
122 135 1
122 140 7
122 142 1
122 146 1
122 147 5
122 148 2
122 149 10
122 150 2
122 151 1
122 152 2
122 156 7
122 157 1
122 158 1
122 159 2
122 160 6
122 165 8
122 167 1
122 171 1
122 172 5
122 174 5
122 176 1
122 177 1
122 179 1
122 180 1
122 184 1
122 185 4
122 187 1
122 189 4
122 194 10
122 195 1
122 196 4
122 200 1
123 4 1
123 6 1
123 8 2
123 10 5
123 11 4
123 12 1
123 13 1
123 16 2
123 17 1
123 18 1
123 19 7
123 20 2
123 22 1
123 23 1
123 26 2
123 28 1
123 29 1
123 32 5
123 33 6
123 35 1
123 42 1
123 45 6
123 49 2
123 50 1
123 51 7
123 53 6
123 55 1
123 56 1
123 57 2
123 58 5
123 59 2
123 62 1
123 65 8
123 69 1
123 70 1
123 72 1
123 74 5
123 76 1
123 79 1
123 80 4
123 81 3
123 82 1
123 84 1
123 85 1
123 87 6
123 89 1
123 92 1
123 93 1
123 101 10
123 102 4
123 104 2
123 105 2
123 107 1
123 111 1
123 115 1
123 117 1
123 118 1
123 119 3
123 120 1
123 121 1
123 123 1
123 124 5
123 127 2
123 129 8
123 134 1
123 135 1
123 137 2
123 138 1
123 140 4
123 142 1
123 146 1
123 147 7
123 148 3
123 149 9
123 151 1
123 153 3
123 154 2
123 156 9
123 157 2
123 158 1
123 159 3
123 160 7
123 162 1
123 165 5
123 169 2
123 171 1
123 172 6
123 173 2
123 174 2
123 175 1
123 176 3
123 177 2
123 180 2
123 181 1
123 183 1
123 184 3
123 185 3
123 186 2
123 187 1
123 193 1
123 194 3
123 196 11
123 197 1
123 199 3
123 200 1
124 2 1
124 6 1
124 7 1
124 8 2
124 10 9
124 11 6
124 13 1
124 16 1
124 19 4
124 20 1
124 21 1
124 25 1
124 29 1
124 30 1
124 32 7
124 33 1
124 36 1
124 39 1
124 42 1
124 43 1
124 45 7
124 46 1
124 49 2
124 51 4
124 53 7
124 54 1
124 58 7
124 60 2
124 61 1
124 63 2
124 65 2
124 67 3
124 72 2
124 73 1
124 74 14
124 75 1
124 78 1
124 80 2
124 81 1
124 82 1
124 84 1
124 85 3
124 87 5
124 89 1
124 90 2
124 92 5
124 96 3
124 101 8
124 102 10
124 104 1
124 105 1
124 108 1
124 111 1
124 112 1
124 113 1
124 114 1
124 117 1
124 119 1
124 122 2
124 124 4
124 125 1
124 126 1
124 128 2
124 129 8
124 130 1
124 132 1
124 137 1
124 139 2
124 140 8
124 143 1
124 147 10
124 148 11
124 149 2
124 151 1
124 154 1
124 156 7
124 157 1
124 158 1
124 159 7
124 160 2
124 163 1
124 165 3
124 166 1
124 168 1
124 170 1
124 171 1
124 172 9
124 174 10
124 175 1
124 176 2
124 177 2
124 178 2
124 180 1
124 182 1
124 185 5
124 191 1
124 192 1
124 194 2
124 195 1
124 196 6
124 197 1
124 198 2
125 34 1
125 60 1
125 93 1
125 102 1
125 121 1
125 139 1
125 163 1
125 169 1
125 171 1
125 172 1
125 182 1
125 195 1
125 198 1
126 8 1
126 39 1
126 44 1
126 85 1
126 105 1
126 107 1
126 118 1
126 119 1
126 134 1
126 165 1
126 194 1
127 4 1
127 23 1
127 69 1
127 80 1
127 83 1
127 89 2
127 98 1
127 143 1
127 149 1
127 169 1
127 175 1
128 17 1
128 25 1
128 55 1
128 66 1
128 69 1
128 77 1
128 96 1
128 97 1
128 122 1
128 129 1
128 131 1
128 154 1
128 161 1
128 167 1
128 171 2
128 175 1
128 183 2
128 186 1
128 195 1
128 197 1
129 18 1
129 27 1
129 55 1
129 60 1
129 63 1
129 75 1
129 88 1
129 96 1
129 99 1
129 102 2
129 139 1
129 169 1
129 173 1
129 176 1
130 4 1
130 14 1
130 74 1
130 80 1
130 88 1
130 93 1
130 100 1
130 108 1
130 112 1
130 139 1
130 186 1
131 17 1
131 29 1
131 39 1
131 42 1
131 72 1
131 77 1
131 89 1
131 100 1
131 109 1
131 119 1
131 120 1
131 131 1
131 138 1
131 144 1
131 167 1
131 171 1
132 22 1
132 25 1
132 31 1
132 54 1
132 70 1
132 73 1
132 94 1
132 100 1
132 140 1
132 156 1
132 165 1
132 184 1
133 9 1
133 21 1
133 34 1
133 37 1
133 53 1
133 67 1
133 81 2
133 97 1
133 103 1
133 108 1
133 113 2
133 130 1
133 141 1
133 144 1
133 148 1
133 159 1
133 173 1
133 174 1
133 200 1
134 26 1
134 29 1
134 34 1
134 49 1
134 111 1
134 131 1
134 136 1
134 142 1
134 184 1
134 189 1
135 6 1
135 9 1
135 10 1
135 16 1
135 17 1
135 61 1
135 66 2
135 91 1
135 100 3
135 104 1
135 114 1
135 117 1
135 135 1
135 146 1
135 152 1
135 157 1
135 164 2
135 169 1
135 175 1
135 178 1
135 188 2
135 196 1
136 1 1
136 24 1
136 36 1
136 39 1
136 41 1
136 61 1
136 79 1
136 100 3
136 122 1
136 149 1
136 176 1
137 39 1
137 40 1
137 51 1
137 55 1
137 86 1
137 100 1
137 115 1
137 122 1
137 136 1
137 142 1
137 149 1
137 153 1
137 158 1
137 166 1
138 15 1
138 36 1
138 38 2
138 84 1
138 103 1
138 123 1
138 124 2
138 134 1
138 166 1
138 187 1
139 1 1
139 22 1
139 25 1
139 35 1
139 39 1
139 60 1
139 110 2
139 122 1
139 126 1
139 145 1
139 155 1
139 161 1
139 169 1
139 181 1
139 189 1
139 195 1
140 6 1
140 21 1
140 48 1
140 51 1
140 71 1
140 84 1
140 121 1
140 133 1
140 136 1
140 151 1
140 161 1
140 166 1
140 168 1
141 7 2
141 20 1
141 39 1
141 41 1
141 119 1
141 138 1
141 145 1
141 166 1
141 169 1
141 177 1
141 182 1
141 196 2
142 44 1
142 53 1
142 65 1
142 77 1
142 96 1
142 128 1
142 147 2
142 185 1
142 199 1
143 7 1
143 9 1
143 16 1
143 24 1
143 54 1
143 67 1
143 73 1
143 111 1
143 114 1
143 135 1
143 137 1
143 145 1
143 146 1
143 148 1
143 151 2
143 163 1
144 5 1
144 13 1
144 69 1
144 70 1
144 95 1
144 99 1
144 101 1
144 117 1
144 120 1
144 160 1
144 168 1
145 8 2
145 9 1
145 14 1
145 33 1
145 38 1
145 46 1
145 55 1
145 60 1
145 111 1
145 135 1
145 147 1
145 148 1
145 155 1
145 163 1
145 168 1
145 180 1
145 182 1
146 6 1
146 26 1
146 37 1
146 52 1
146 68 1
146 70 1
146 74 1
146 81 1
146 86 1
146 109 1
146 121 1
146 122 1
146 148 1
146 151 2
146 181 1
146 184 1
147 3 1
147 12 1
147 15 1
147 54 1
147 57 1
147 70 1
147 80 2
147 85 1
147 87 1
147 105 2
147 134 1
147 148 2
147 157 1
147 173 1
148 8 1
148 10 1
148 15 1
148 18 1
148 36 1
148 37 2
148 80 1
148 98 2
148 103 1
148 178 1
148 179 1
148 183 1
149 11 1
149 13 1
149 29 1
149 40 1
149 46 1
149 64 1
149 98 1
149 102 1
149 103 1
149 142 1
149 185 1
149 200 1
150 32 1
150 42 1
150 56 1
150 74 1
150 84 1
150 102 1
150 107 1
150 117 1
150 122 1
150 128 1
151 34 1
151 50 1
151 53 1
151 55 1
151 70 1
151 90 1
151 161 1
151 168 1
151 184 1
152 28 1
152 36 1
152 39 1
152 41 1
152 54 1
152 93 1
152 101 1
152 109 1
152 129 1
152 130 1
152 140 1
152 185 1
153 23 1
153 32 1
153 42 3
153 86 1
153 99 1
153 146 1
153 152 1
153 162 1
154 13 1
154 17 1
154 46 1
154 76 1
154 123 1
154 129 1
154 132 1
154 183 1
154 190 1
155 9 2
155 11 1
155 24 1
155 27 1
155 28 1
155 86 1
155 116 1
155 141 1
155 147 1
155 148 1
155 165 1
155 166 1
155 177 1
155 195 1
156 2 1
156 8 1
156 39 1
156 44 1
156 56 1
156 107 2
156 109 1
156 114 1
156 116 1
156 156 1
156 161 1
156 162 1
156 180 1
156 191 1
157 2 2
157 12 1
157 27 1
157 41 1
157 57 1
157 68 1
157 131 1
157 133 2
157 172 1
157 173 1
157 191 1
158 2 1
158 22 1
158 68 1
158 84 1
158 86 1
158 95 1
158 101 1
158 108 1
158 117 1
158 122 1
158 124 1
158 138 1
158 142 1
158 143 1
158 145 1
158 169 1
158 178 1
158 180 1
158 187 1
159 19 1
159 24 1
159 42 1
159 44 1
159 47 1
159 60 1
159 62 1
159 66 1
159 79 1
159 126 1
159 138 1
159 147 1
159 151 1
159 158 1
159 169 1
159 184 2
159 193 1
159 196 1
160 2 1
160 3 1
160 7 1
160 11 1
160 36 1
160 51 1
160 52 1
160 78 1
160 89 1
160 130 1
160 133 1
160 167 1
161 30 1
161 32 1
161 44 1
161 50 1
161 82 1
161 85 1
161 94 1
161 107 1
161 114 1
161 120 1
161 132 1
161 134 1
161 154 1
161 167 1
161 174 1
161 177 1
161 195 1
162 20 1
162 49 1
162 112 1
162 121 1
162 157 1
162 160 2
162 164 2
162 169 1
162 187 1
162 193 1
163 19 1
163 42 1
163 49 1
163 54 1
163 74 1
163 83 1
163 89 1
163 128 1
163 158 1
163 159 1
163 196 1
164 9 1
164 45 2
164 48 1
164 84 1
164 104 2
164 109 1
164 114 1
164 173 1
164 181 1
164 185 1
165 3 1
165 6 1
165 18 1
165 26 1
165 37 1
165 41 1
165 63 2
165 68 1
165 69 1
165 70 1
165 77 1
165 81 1
165 85 1
165 103 1
165 111 1
165 119 2
165 141 1
165 169 1
166 13 1
166 14 1
166 22 1
166 25 1
166 36 1
166 62 1
166 91 1
166 102 1
166 109 1
166 123 1
166 124 1
166 126 1
166 159 1
166 166 1
166 169 1
166 170 1
166 187 1
166 198 1
167 8 1
167 15 1
167 18 1
167 36 1
167 42 1
167 50 2
167 55 1
167 85 1
167 89 1
167 103 1
167 112 2
167 121 1
167 123 1
167 142 1
167 143 1
167 165 1
167 188 1
167 194 1
168 4 1
168 25 1
168 41 1
168 59 1
168 74 1
168 88 1
168 140 1
168 167 1
168 170 1
168 171 1
169 17 1
169 29 1
169 63 1
169 65 1
169 73 1
169 89 1
169 101 1
169 115 1
169 130 1
169 139 1
169 141 1
169 154 1
169 168 1
170 2 1
170 43 1
170 46 1
170 55 1
170 78 2
170 106 1
170 107 2
170 115 1
170 122 1
170 144 1
170 145 1
170 147 1
170 163 1
170 175 1
170 184 1
171 13 2
171 15 1
171 18 1
171 48 1
171 67 1
171 69 1
171 86 1
171 123 1
171 132 2
171 145 1
172 14 1
172 38 1
172 50 1
172 51 1
172 67 1
172 79 1
172 84 1
172 104 1
172 112 1
172 117 1
172 135 1
172 147 1
172 154 1
172 157 1
172 159 1
173 12 1
173 47 2
173 52 1
173 65 1
173 84 1
173 116 1
173 123 1
173 144 1
173 145 2
173 148 1
173 159 1
173 179 1
173 191 1
174 3 1
174 43 1
174 56 1
174 79 1
174 138 1
174 149 1
174 153 1
174 165 1
174 173 1
175 19 1
175 46 1
175 54 2
175 118 1
175 145 1
175 146 1
175 159 1
175 185 1
175 186 1
176 14 1
176 34 1
176 45 1
176 49 1
176 70 1
176 77 1
176 90 1
176 96 1
176 115 1
176 122 1
176 157 1
176 162 2
176 164 1
176 177 1
177 2 1
177 10 1
177 33 1
177 34 1
177 63 1
177 73 1
177 95 1
177 110 1
177 125 1
177 142 1
177 163 1
177 178 1
177 186 1
177 188 1
177 189 1
178 3 1
178 8 1
178 32 1
178 40 1
178 95 1
178 117 1
178 128 1
178 139 1
178 144 1
178 160 1
178 165 1
179 27 1
179 45 1
179 57 1
179 61 1
179 79 1
179 87 1
179 91 2
179 93 1
179 97 1
179 120 1
179 132 1
179 148 1
179 159 1
179 160 1
179 176 1
179 181 1
180 39 1
180 44 1
180 67 1
180 71 1
180 88 1
180 91 1
180 104 1
180 115 1
180 126 2
180 129 1
180 138 1
180 145 1
180 159 2
180 170 1
180 183 1
181 1 2
181 19 1
181 25 2
181 29 1
181 42 1
181 45 1
181 56 1
181 68 1
181 89 1
181 118 1
181 147 1
181 149 1
181 168 1
181 174 1
182 9 1
182 19 1
182 22 1
182 25 1
182 26 1
182 33 1
182 55 1
182 68 1
182 109 1
182 122 1
182 125 1
182 151 1
182 155 1
182 179 1
183 6 1
183 14 1
183 17 1
183 57 1
183 83 1
183 103 1
183 107 1
183 118 1
183 125 2
183 136 1
183 139 1
183 152 1
183 153 1
183 167 1
183 178 2
183 195 1
183 197 1
183 200 1
184 20 1
184 33 1
184 42 1
184 71 1
184 76 1
184 95 1
184 101 1
184 104 1
184 108 1
184 112 1
184 116 1
184 135 1
184 145 1
184 167 1
184 189 1
184 195 1
185 7 1
185 10 1
185 19 1
185 27 1
185 42 1
185 46 1
185 63 1
185 74 1
185 101 1
185 107 1
185 110 1
185 119 1
185 120 1
185 151 1
185 154 2
185 155 1
185 158 1
185 194 1
186 3 1
186 18 1
186 25 1
186 27 1
186 39 1
186 52 2
186 62 2
186 78 2
186 107 1
186 136 1
186 149 1
186 158 1
186 159 1
186 174 1
186 178 1
187 5 1
187 69 1
187 90 1
187 93 1
187 98 1
187 136 1
187 141 1
187 143 1
187 193 1
188 2 1
188 7 1
188 9 1
188 42 1
188 58 1
188 61 2
188 66 1
188 76 1
188 88 1
188 89 1
188 96 1
188 104 1
188 133 1
188 165 1
188 194 1
188 200 1
189 16 2
189 40 1
189 72 1
189 81 2
189 94 1
189 101 1
189 106 1
189 120 1
189 137 1
189 143 1
189 166 1
189 185 1
189 197 1
190 13 1
190 15 1
190 28 1
190 47 1
190 55 1
190 63 1
190 76 1
190 84 1
190 96 1
190 103 1
190 122 1
190 131 1
190 137 1
190 143 1
190 145 1
190 146 2
190 157 1
190 176 2
190 178 1
190 189 3
190 199 1
191 24 1
191 30 1
191 38 1
191 59 1
191 80 1
191 85 1
191 102 1
191 110 1
191 134 1
191 164 1
192 14 2
192 47 1
192 48 1
192 54 1
192 68 1
192 88 1
192 127 1
192 131 1
192 139 1
192 142 1
192 147 1
192 159 3
192 161 1
192 169 1
192 175 1
192 177 1
192 190 1
192 195 1
193 4 1
193 67 1
193 84 1
193 118 1
193 123 1
193 127 1
193 129 2
193 140 1
193 145 1
193 150 1
193 157 2
193 167 1
193 183 1
193 187 1
194 15 1
194 26 1
194 30 1
194 35 1
194 36 1
194 39 1
194 63 1
194 68 1
194 107 1
194 131 1
194 133 1
194 150 1
194 173 1
194 186 1
195 14 1
195 64 1
195 69 1
195 82 1
195 91 1
195 95 2
195 107 1
195 110 1
195 124 1
195 135 1
195 149 2
195 151 1
195 160 1
195 165 3
195 184 1
195 185 1
195 190 1
195 198 1
196 3 1
196 17 1
196 18 1
196 42 1
196 43 1
196 46 1
196 62 1
196 67 1
196 76 1
196 80 1
196 125 1
196 142 1
196 145 1
196 158 1
196 167 1
196 189 1
197 56 1
197 57 1
197 67 1
197 87 1
197 95 1
197 117 1
197 124 1
197 149 1
197 158 1
197 178 1
197 184 1
197 186 1
197 192 1
198 3 1
198 11 1
198 34 1
198 44 1
198 55 2
198 60 1
198 68 1
198 70 1
198 74 1
198 76 1
198 81 1
198 107 1
198 125 1
198 146 1
198 156 1
198 181 1
198 187 1
198 189 1
199 7 1
199 12 1
199 40 1
199 42 1
199 50 1
199 75 1
199 91 1
199 104 1
199 133 1
199 149 1
199 177 1
199 185 1
199 198 1
200 4 1
200 39 1
200 45 1
200 80 2
200 87 1
200 100 1
200 115 1
200 119 1
200 135 1
200 144 1
200 153 1
200 155 1
200 157 1
200 160 1
200 173 1
200 181 2
201 21 1
201 27 1
201 50 1
201 72 1
201 137 1
201 152 1
201 163 1
201 165 1
201 174 1
201 197 1
202 12 1
202 36 1
202 78 1
202 118 1
202 127 1
202 144 1
202 165 1
202 175 1
202 188 1
203 16 1
203 17 1
203 29 1
203 60 1
203 68 2
203 88 1
203 94 1
203 103 1
203 133 1
203 148 2
203 153 1
203 165 1
203 191 1
204 1 1
204 9 1
204 15 1
204 23 1
204 41 1
204 46 1
204 52 1
204 65 1
204 68 1
204 86 1
204 92 1
204 112 1
204 129 1
204 143 1
204 145 1
204 146 1
204 160 1
204 162 1
204 176 1
205 6 1
205 24 1
205 49 1
205 68 1
205 75 1
205 92 1
205 104 1
205 108 1
205 112 1
205 128 1
205 142 1
205 168 1
205 171 1
205 181 1
205 185 1
205 187 1
205 189 1
206 18 1
206 58 2
206 61 1
206 82 1
206 106 1
206 108 1
206 132 1
206 133 1
206 184 1
206 189 1
206 193 1
207 6 1
207 20 1
207 22 1
207 33 1
207 40 1
207 57 1
207 82 1
207 86 1
207 93 1
207 103 1
207 105 1
207 110 1
207 141 1
207 199 1
208 1 1
208 4 1
208 43 1
208 79 1
208 105 1
208 108 1
208 110 1
208 116 2
208 134 1
208 159 1
208 196 1
209 23 1
209 62 1
209 64 2
209 92 1
209 103 1
209 125 1
209 141 1
209 142 1
209 145 1
209 163 1
209 195 1
210 5 1
210 17 1
210 25 1
210 54 2
210 67 1
210 126 1
210 136 1
210 150 1
210 183 1
211 11 1
211 33 1
211 39 1
211 53 1
211 59 1
211 63 1
211 72 1
211 78 1
211 89 1
211 94 1
211 96 1
211 123 1
211 180 1
211 181 1
211 200 1
212 6 3
212 16 1
212 19 1
212 28 1
212 34 1
212 35 1
212 58 1
212 72 1
212 87 1
212 90 1
212 94 1
212 115 1
212 126 1
212 129 1
212 167 1
212 170 1
213 62 1
213 119 1
213 121 1
213 143 1
213 144 1
213 148 1
213 167 1
213 192 2
214 12 1
214 15 1
214 32 1
214 36 1
214 41 1
214 45 1
214 54 2
214 58 1
214 62 1
214 109 2
214 114 1
214 117 1
214 131 1
214 160 1
214 166 1
214 190 1
214 199 1
215 4 1
215 20 1
215 56 1
215 71 1
215 104 1
215 105 1
215 117 2
215 148 1
215 180 1
215 190 1
216 17 1
216 21 1
216 51 1
216 70 1
216 110 2
216 121 2
216 140 1
216 179 1
216 197 2
217 25 1
217 31 1
217 46 1
217 65 1
217 77 1
217 84 1
217 89 1
217 125 1
217 154 1
217 168 1
217 177 1
217 181 1
218 8 1
218 10 1
218 19 1
218 47 1
218 58 1
218 62 1
218 66 1
218 69 2
218 82 1
218 83 1
218 107 1
218 125 1
218 131 1
218 133 1
218 137 1
218 173 1
218 191 1
218 192 1
219 4 1
219 59 1
219 61 1
219 63 2
219 68 1
219 89 1
219 93 1
219 96 1
219 101 1
219 113 1
219 118 1
219 126 1
219 135 1
219 138 1
219 166 1
220 56 1
220 62 1
220 82 1
220 83 1
220 88 1
220 118 1
220 141 1
220 154 2
220 156 1
220 174 1
220 191 1
220 196 1
221 7 1
221 50 1
221 64 1
221 77 1
221 120 1
221 127 1
221 172 1
222 7 1
222 14 1
222 44 1
222 52 1
222 57 1
222 65 1
222 130 1
222 141 1
222 161 1
222 178 1
222 194 1
222 198 1
223 13 1
223 29 1
223 51 1
223 59 1
223 66 1
223 73 1
223 99 1
223 100 1
223 103 1
223 106 1
223 120 1
223 153 1
223 170 1
224 2 1
224 11 1
224 35 1
224 51 1
224 71 1
224 73 1
224 83 1
224 87 1
224 88 1
224 97 1
224 127 1
224 148 1
224 153 1
224 177 1
225 2 1
225 38 1
225 49 1
225 65 1
225 79 1
225 81 1
225 88 2
225 114 1
225 119 1
225 121 1
225 142 1
225 154 1
225 164 1
225 171 1
225 173 1
226 1 1
226 14 1
226 17 1
226 33 2
226 59 1
226 74 1
226 101 1
226 110 1
226 124 1
226 148 1
226 169 1
226 180 1
226 181 1
226 194 1
227 26 1
227 43 1
227 57 1
227 72 1
227 77 1
227 106 1
227 124 1
227 131 1
227 153 1
227 157 1
227 163 1
227 176 1
227 184 1
227 192 1
228 10 1
228 39 1
228 66 1
228 67 1
228 97 1
228 107 1
228 111 1
228 131 1
228 132 1
228 140 1
228 165 1
228 171 1
228 179 1
229 18 1
229 36 1
229 48 1
229 55 1
229 76 1
229 90 1
229 92 2
229 126 1
229 156 1
229 157 1
229 181 1
229 198 1
230 8 1
230 13 1
230 27 1
230 58 1
230 138 1
230 146 1
230 157 1
230 174 1
230 193 1
231 3 1
231 10 1
231 14 1
231 31 1
231 38 1
231 46 1
231 94 1
231 104 1
231 113 1
231 137 1
231 140 1
231 141 1
231 144 1
231 169 2
231 192 1
232 5 1
232 12 1
232 18 1
232 21 1
232 22 1
232 99 1
232 177 2
232 184 1
233 22 1
233 52 1
233 57 1
233 91 1
233 161 1
233 177 1
234 6 1
234 16 1
234 17 1
234 20 1
234 34 2
234 39 1
234 48 1
234 55 1
234 85 1
234 97 1
234 110 2
234 119 1
234 123 1
234 127 1
234 163 1
234 164 1
234 181 2
234 196 1
235 25 1
235 64 1
235 94 1
235 95 1
235 96 1
235 111 1
235 134 1
235 150 1
235 161 1
235 178 1
235 192 1
235 198 1
236 35 1
236 45 1
236 55 1
236 68 1
236 71 1
236 87 1
236 113 1
236 125 1
236 144 1
236 178 1
236 200 1
237 53 1
237 72 1
237 81 1
237 110 1
237 120 1
237 126 1
237 133 2
237 156 1
237 184 1
238 1 1
238 14 1
238 16 1
238 60 1
238 89 1
238 109 1
238 136 1
238 163 1
238 185 1
238 194 1
238 200 1
239 12 1
239 42 1
239 48 1
239 107 1
239 110 1
239 151 1
239 175 2
239 179 2
239 181 1
239 183 1
240 39 1
240 51 1
240 57 1
240 93 1
240 114 1
240 156 1
240 188 1
241 7 1
241 14 1
241 56 1
241 77 1
241 127 1
241 128 1
241 132 2
241 137 1
241 200 1
242 7 1
242 61 2
242 72 1
242 75 2
242 87 1
242 116 1
242 122 1
242 134 1
242 148 1
242 159 3
242 191 1
242 192 1
243 10 1
243 20 1
243 31 1
243 56 1
243 69 2
243 87 1
243 121 1
243 129 2
243 155 1
243 159 1
243 160 1
243 164 1
243 165 1
243 169 1
243 179 1
243 185 1
244 8 2
244 52 1
244 61 1
244 87 1
244 97 1
244 113 1
244 116 1
244 118 1
244 137 1
244 147 1
244 150 1
244 162 1
244 165 1
244 181 1
244 185 1
245 1 1
245 15 1
245 38 1
245 45 1
245 56 1
245 77 1
245 155 1
245 185 1
245 192 1
246 2 1
246 57 1
246 61 1
246 74 1
246 79 1
246 91 1
246 94 1
246 98 1
246 102 1
246 137 2
246 159 1
246 178 1
246 179 1
246 183 1
246 191 2
247 5 1
247 8 1
247 15 1
247 32 1
247 33 1
247 45 2
247 50 1
247 61 1
247 69 1
247 76 1
247 94 1
247 97 1
247 116 1
247 128 1
247 131 1
247 141 1
247 150 1
247 160 1
247 164 1
247 178 1
247 200 1
248 10 1
248 18 1
248 27 1
248 41 1
248 47 1
248 56 1
248 60 1
248 73 1
248 75 1
248 78 1
248 79 1
248 92 1
248 93 1
248 99 1
248 100 2
248 124 2
248 131 1
248 174 1
249 5 1
249 21 1
249 25 1
249 40 1
249 44 1
249 48 1
249 49 2
249 58 1
249 67 1
249 74 1
249 77 1
249 81 1
249 82 1
249 91 1
249 102 1
249 111 1
249 115 2
249 154 1
249 193 1
249 197 1
249 200 2
250 18 1
250 20 1
250 39 1
250 64 1
250 72 1
250 79 1
250 83 1
250 88 2
250 95 1
250 97 1
250 105 1
250 107 1
250 120 1
250 121 1
250 151 1
250 156 1
250 157 1
251 4 1
251 7 1
251 41 1
251 63 1
251 75 1
251 96 1
251 120 1
251 125 1
251 130 1
251 137 1
251 170 1
251 190 1
251 192 1
251 199 1
251 200 1
252 11 1
252 46 1
252 48 1
252 78 1
252 102 1
252 116 1
252 120 1
252 132 1
252 159 1
252 165 1
252 186 1
253 2 1
253 10 1
253 26 1
253 97 1
253 118 1
253 122 1
253 129 1
253 148 1
253 182 1
254 10 1
254 26 1
254 40 1
254 48 1
254 76 2
254 89 1
254 93 1
254 101 1
254 120 1
254 144 1
254 162 1
254 169 1
254 170 1
254 196 1
255 14 1
255 17 1
255 30 1
255 44 1
255 51 1
255 56 1
255 58 1
255 68 1
255 104 1
255 107 1
255 125 1
255 147 1
255 148 1
255 159 1
255 177 1
255 181 1
255 184 1
255 187 1
256 2 2
256 12 1
256 25 1
256 51 1
256 61 1
256 62 1
256 106 1
256 120 1
256 132 2
256 135 1
256 154 1
256 188 1
257 13 2
257 54 1
257 74 1
257 113 1
257 114 1
257 120 1
257 133 2
257 136 1
257 152 2
257 179 1
257 187 1
257 198 1
258 9 1
258 16 1
258 31 1
258 56 1
258 78 1
258 94 1
258 95 1
258 105 1
258 136 1
258 137 1
258 138 1
258 143 1
258 175 1
258 186 1
258 200 1
259 28 1
259 44 1
259 58 1
259 86 1
259 93 2
259 104 1
259 106 1
259 107 1
259 124 1
259 126 1
259 137 1
259 147 1
259 152 1
259 155 1
259 161 1
259 172 1
259 188 1
260 4 1
260 15 1
260 17 1
260 49 1
260 64 1
260 76 1
260 120 1
260 141 1
260 145 1
260 170 1
261 17 1
261 19 2
261 25 2
261 31 1
261 40 1
261 58 1
261 59 1
261 68 1
261 71 1
261 114 1
261 117 1
261 133 1
261 151 1
261 157 1
261 168 1
261 183 1
262 6 1
262 25 1
262 49 1
262 67 1
262 68 1
262 75 1
262 78 1
262 80 1
262 88 1
262 96 2
262 114 1
262 133 1
262 150 1
262 162 1
262 164 1
262 175 1
262 185 1
263 28 1
263 46 1
263 52 1
263 82 1
263 93 1
263 103 1
263 131 1
263 139 1
263 141 1
263 142 1
263 144 1
263 164 1
263 166 1
263 167 1
263 177 1
264 2 1
264 12 1
264 34 1
264 41 1
264 46 1
264 77 1
264 86 1
264 96 1
264 116 1
264 124 1
264 172 1
264 192 1
265 24 2
265 104 1
265 125 2
265 135 1
265 141 1
265 172 1
265 189 1
265 196 1
266 23 1
266 44 1
266 49 1
266 67 1
266 71 1
266 74 1
266 80 1
266 91 1
266 128 1
266 131 1
266 134 1
266 137 1
266 139 1
266 149 1
266 154 1
266 162 1
266 183 1
267 5 1
267 8 1
267 12 1
267 21 1
267 23 1
267 46 1
267 53 1
267 75 1
267 82 1
267 94 1
267 116 1
267 146 1
267 161 1
267 168 1
267 182 1
267 185 1
268 13 1
268 54 1
268 75 1
268 78 1
268 82 1
268 94 1
268 118 1
268 135 1
268 139 1
268 143 1
268 173 1
269 20 1
269 24 1
269 26 1
269 34 1
269 41 2
269 48 1
269 65 1
269 71 1
269 115 1
269 132 1
269 141 1
269 191 1
270 2 1
270 26 1
270 31 1
270 34 1
270 69 1
270 80 2
270 81 1
270 88 1
270 89 1
270 95 1
270 98 1
270 127 1
270 138 1
270 147 1
270 148 1
270 179 1
270 188 1
271 8 1
271 29 1
271 33 1
271 42 1
271 49 1
271 55 2
271 60 2
271 69 1
271 94 1
271 105 1
271 111 1
271 113 1
271 118 1
271 122 1
271 137 1
271 155 1
271 158 1
271 164 1
271 167 1
271 177 1
271 181 1
271 187 1
271 199 1
271 200 1
272 45 1
272 60 1
272 64 1
272 73 1
272 102 1
272 140 1
272 178 1
272 189 1
272 198 1
273 1 1
273 33 1
273 35 1
273 40 1
273 48 1
273 81 1
273 102 1
273 113 1
273 139 1
273 177 1
273 189 1
274 1 2
274 35 1
274 65 1
274 74 1
274 83 1
274 109 1
274 110 1
274 159 1
274 161 1
274 173 1
274 178 1
274 189 1
275 35 1
275 65 1
275 66 1
275 86 2
275 95 1
275 106 1
275 107 1
275 112 1
275 114 1
275 122 1
275 163 1
275 185 1
276 4 1
276 5 1
276 37 1
276 46 1
276 52 1
276 56 1
276 57 1
276 64 1
276 81 1
276 89 1
276 102 1
276 108 1
276 121 1
276 155 1
276 164 1
276 177 1
276 199 1
277 9 1
277 15 1
277 43 1
277 57 1
277 78 1
277 83 1
277 88 1
277 102 1
277 106 1
277 122 1
277 150 1
277 171 1
277 177 1
277 182 1
277 198 1
277 199 1
277 200 1
278 2 1
278 7 1
278 13 1
278 24 1
278 26 1
278 31 1
278 44 1
278 76 1
278 101 1
278 145 2
278 152 1
278 153 1
278 189 1
278 190 1
278 195 1
279 1 1
279 11 1
279 17 1
279 19 1
279 30 1
279 44 1
279 58 1
279 59 1
279 62 1
279 89 1
279 100 1
279 117 1
279 142 1
279 150 2
279 154 1
279 155 1
279 165 1
280 7 1
280 14 1
280 22 2
280 23 1
280 38 1
280 47 1
280 63 1
280 67 1
280 74 1
280 87 1
280 91 1
280 102 1
280 144 1
280 153 1
280 199 1
281 20 1
281 28 1
281 82 1
281 83 1
281 107 1
281 108 1
281 110 1
281 135 1
281 139 1
281 144 1
281 158 1
281 164 1
281 165 1
281 176 1
281 182 1
282 31 1
282 70 1
282 99 1
282 101 1
282 127 1
282 136 1
282 147 1
282 191 2
283 6 1
283 27 1
283 37 1
283 77 1
283 102 1
283 104 1
283 133 1
283 159 1
283 165 1
283 172 1
283 173 1
283 193 1
283 195 1
284 16 2
284 28 1
284 29 1
284 73 1
284 101 1
284 118 1
284 128 1
284 134 1
284 141 2
284 148 1
284 159 1
284 160 1
284 163 1
284 168 1
285 4 1
285 7 1
285 19 1
285 25 1
285 47 1
285 51 1
285 74 1
285 103 1
285 104 1
285 105 1
285 134 1
285 146 1
285 153 1
285 173 1
285 190 1
286 2 1
286 90 1
286 106 1
286 119 2
286 126 1
286 129 2
286 169 1
286 175 1
286 176 1
286 185 1
286 193 1
287 6 1
287 8 1
287 23 2
287 64 1
287 94 1
287 120 1
287 122 1
287 139 2
287 140 1
287 151 1
287 164 1
287 168 1
287 183 1
287 197 1
288 12 1
288 29 1
288 41 1
288 51 1
288 62 1
288 70 1
288 119 1
288 122 1
288 170 1
288 186 1
289 21 1
289 25 1
289 58 1
289 61 1
289 75 1
289 86 1
289 109 1
289 118 1
289 136 1
289 144 1
289 153 1
289 156 1
289 173 1
289 176 1
289 178 1
289 188 1
289 190 1
289 198 1
289 200 1
290 25 1
290 51 1
290 53 1
290 104 1
290 155 1
290 173 1
291 55 1
291 108 1
291 117 1
291 122 1
291 124 1
291 131 1
291 137 1
291 144 1
292 4 1
292 22 1
292 35 1
292 50 1
292 97 1
292 100 1
292 133 1
292 134 1
292 139 1
292 145 1
292 163 1
292 167 1
292 176 1
292 185 1
293 1 1
293 2 1
293 37 1
293 83 1
293 86 2
293 110 1
293 116 1
293 119 1
293 132 1
293 135 1
293 142 1
293 150 1
293 162 1
293 171 1
293 173 1
293 177 1
293 186 1
293 187 1
293 199 1
294 6 1
294 12 1
294 17 1
294 65 1
294 66 1
294 70 1
294 78 1
294 81 1
294 88 1
294 104 1
294 135 2
294 171 1
294 180 1
294 183 1
294 188 1
294 189 1
294 190 1
294 198 1
295 10 1
295 12 1
295 16 1
295 30 1
295 51 1
295 54 1
295 90 1
295 112 1
295 126 1
295 134 1
295 147 2
295 150 1
295 197 1
296 4 2
296 34 1
296 68 2
296 83 1
296 87 1
296 99 1
296 123 1
296 146 1
296 156 1
296 162 1
296 163 1
296 165 1
296 188 1
296 189 1
296 198 1
296 200 1
297 10 1
297 15 1
297 21 1
297 23 1
297 59 1
297 63 1
297 67 1
297 90 1
297 100 1
297 105 1
297 109 1
297 114 1
297 116 1
297 124 2
297 139 1
297 155 1
297 160 1
298 12 2
298 15 1
298 17 1
298 24 1
298 25 1
298 71 1
298 110 1
298 118 1
298 126 1
298 159 1
298 167 1
298 183 1
299 15 2
299 18 1
299 23 1
299 45 1
299 66 1
299 78 1
299 84 1
299 89 2
299 128 1
299 159 1
299 167 1
299 180 1
299 186 1
300 21 1
300 37 1
300 64 1
300 74 1
300 89 1
300 96 1
300 138 1
300 153 1
300 159 1
300 177 1
300 194 1
300 197 1
301 21 1
301 22 1
301 30 1
301 44 1
301 59 1
301 80 1
301 87 1
301 103 1
301 104 1
301 134 1
301 169 1
302 13 1
302 25 1
302 40 2
302 67 1
302 81 1
302 106 1
302 108 2
302 113 1
302 126 1
302 133 1
302 135 1
302 138 1
302 149 1
302 150 1
302 151 1
303 5 1
303 16 1
303 18 2
303 32 1
303 62 1
303 75 1
303 76 1
303 99 1
303 116 1
303 140 1
303 191 1
304 14 1
304 17 1
304 38 1
304 68 1
304 76 1
304 102 1
304 115 1
304 133 1
304 138 1
304 164 1
304 175 1
304 180 1
304 190 1
305 7 2
305 20 1
305 42 1
305 72 1
305 78 1
305 84 1
305 130 1
305 145 2
305 154 1
306 1 1
306 7 1
306 30 1
306 31 2
306 85 1
306 98 2
306 123 1
306 124 1
306 126 1
306 139 1
306 183 1
306 199 1
306 200 1
307 38 1
307 71 1
307 93 1
307 96 1
307 97 1
307 118 1
307 146 1
307 150 1
307 191 1
308 2 1
308 16 1
308 19 1
308 43 1
308 54 1
308 80 1
308 117 1
308 129 1
308 145 1
308 149 1
308 172 1
308 181 1
308 186 1
308 194 1
308 198 1
308 199 1
309 13 1
309 16 1
309 90 1
309 108 1
309 109 1
309 112 1
309 119 1
309 134 1
309 170 1
309 171 1
309 184 2
309 190 1
309 192 1
309 196 1
310 9 1
310 30 1
310 58 1
310 69 1
310 115 1
310 128 1
310 133 1
310 154 1
310 157 1
310 158 1
310 164 1
310 180 1
310 196 1
311 10 1
311 20 1
311 35 1
311 78 1
311 90 2
311 99 1
311 141 1
311 153 1
311 163 1
311 165 1
311 173 1
311 186 1
312 3 1
312 31 1
312 33 1
312 36 1
312 68 1
312 70 1
312 74 1
312 116 1
312 123 1
312 154 1
312 155 1
312 156 1
312 169 2
312 182 1
312 191 1
312 197 1
313 13 1
313 52 1
313 99 1
313 101 1
313 103 1
313 105 1
313 109 1
313 123 1
313 148 1
313 152 1
313 153 1
313 168 1
313 174 1
313 176 2
313 177 1
313 183 1
314 13 1
314 46 1
314 72 1
314 90 1
314 101 1
314 116 1
314 126 1
314 151 1
314 164 1
314 167 1
314 175 1
314 180 1
315 6 1
315 34 1
315 35 1
315 36 1
315 37 1
315 62 1
315 63 1
315 65 1
315 72 1
315 75 1
315 82 2
315 85 3
315 104 1
315 126 1
315 132 1
315 144 1
315 145 1
315 180 1
315 189 1
316 18 1
316 28 1
316 59 1
316 83 1
316 88 1
316 90 2
316 92 1
316 102 1
316 108 1
316 110 1
316 119 1
316 122 1
316 139 2
316 154 1
316 160 2
316 162 1
316 189 1
316 199 1
316 200 1
317 5 1
317 20 1
317 56 1
317 62 1
317 65 1
317 79 1
317 92 1
317 118 1
317 131 1
317 137 1
317 151 1
317 152 2
317 182 1
317 183 1
317 195 2
318 19 1
318 23 1
318 28 2
318 42 1
318 52 1
318 58 1
318 59 1
318 68 1
318 83 1
318 93 1
318 101 1
318 109 1
318 121 1
318 135 1
318 171 1
318 174 1
318 195 1
319 25 1
319 37 1
319 41 1
319 43 1
319 44 1
319 56 1
319 57 1
319 79 1
319 80 1
319 104 1
319 112 1
319 157 1
319 161 1
319 165 1
319 177 1
319 180 1
319 182 1
319 198 1
320 17 2
320 23 1
320 27 1
320 32 1
320 34 1
320 41 1
320 48 1
320 55 1
320 65 1
320 67 1
320 76 1
320 85 1
320 87 2
320 129 1
320 150 2
320 171 1
321 12 1
321 14 1
321 17 1
321 25 1
321 57 1
321 59 1
321 74 1
321 132 1
321 141 1
321 142 1
321 162 1
321 176 1
321 177 1
321 193 1
321 198 1
322 4 1
322 5 1
322 44 2
322 92 1
322 96 1
322 112 1
322 118 1
322 123 1
322 128 1
322 169 1
322 171 1
322 187 1
323 5 1
323 9 1
323 14 1
323 20 1
323 93 1
323 143 1
323 159 1
323 172 1
323 173 1
323 182 1
323 199 1
324 4 1
324 24 2
324 56 1
324 76 1
324 83 1
324 121 2
324 128 1
324 154 1
324 161 1
324 165 1
324 174 1
324 175 1
324 180 1
324 192 1
325 6 1
325 11 2
325 12 1
325 39 1
325 62 1
325 73 1
325 79 1
325 98 1
325 135 1
325 140 1
325 180 1
325 193 1
325 199 1
325 200 1
326 10 1
326 30 1
326 36 1
326 37 1
326 65 1
326 121 1
326 140 1
326 145 1
326 147 1
326 175 1
326 185 1
327 7 1
327 31 1
327 70 1
327 74 1
327 75 1
327 100 1
327 101 1
327 106 1
327 116 1
327 134 1
327 136 1
327 138 1
327 149 1
327 159 2
328 6 2
328 14 1
328 15 1
328 30 1
328 70 1
328 86 1
328 112 1
328 140 1
328 169 1
328 191 1
328 197 1
329 9 2
329 21 1
329 35 1
329 51 1
329 78 1
329 89 1
329 93 1
329 117 1
329 119 1
329 128 1
329 139 1
329 156 1
329 164 1
329 200 1
330 19 1
330 40 1
330 49 1
330 53 1
330 69 1
330 77 1
330 93 1
330 102 1
330 122 1
330 125 1
330 156 1
330 198 1
331 11 1
331 23 1
331 25 1
331 32 1
331 59 1
331 82 1
331 84 1
331 85 1
331 87 3
331 96 1
331 132 1
331 134 1
331 153 1
331 176 2
331 186 1
331 198 1
332 16 1
332 18 1
332 21 1
332 26 1
332 30 1
332 36 1
332 74 1
332 78 1
332 107 1
332 116 1
332 161 2
333 17 1
333 39 1
333 45 1
333 84 1
333 99 1
333 102 1
333 109 1
333 123 2
333 132 1
333 150 1
333 155 1
333 161 1
333 169 1
333 174 1
334 4 2
334 9 1
334 28 1
334 45 1
334 55 1
334 64 2
334 67 1
334 74 1
334 93 1
334 115 1
334 118 1
334 137 1
334 150 1
334 151 1
334 154 1
334 169 2
334 179 1
334 189 1
335 13 1
335 18 1
335 41 1
335 60 2
335 72 1
335 78 1
335 82 1
335 94 1
335 116 1
335 122 2
335 133 2
335 145 1
335 147 1
335 177 1
335 183 1
335 198 1
336 4 1
336 6 1
336 14 1
336 19 1
336 32 1
336 52 1
336 66 1
336 79 1
336 84 1
336 97 1
336 98 1
336 169 1
337 9 2
337 11 1
337 35 1
337 37 1
337 47 1
337 81 1
337 85 1
337 99 1
337 115 1
337 116 1
337 199 1
338 23 1
338 50 1
338 75 1
338 77 1
338 94 1
338 101 1
338 114 1
338 115 1
338 125 1
338 128 1
338 143 1
338 149 1
338 150 1
338 173 1
338 181 1
338 197 1
339 11 1
339 14 1
339 25 1
339 30 2
339 39 1
339 83 1
339 86 1
339 108 1
339 116 1
339 117 1
339 121 1
339 140 1
339 151 1
339 163 1
339 167 1
339 173 1
339 199 1
340 8 1
340 9 1
340 23 1
340 55 1
340 61 1
340 69 1
340 80 1
340 101 1
340 105 1
340 126 1
340 168 1
340 179 1
340 181 1
340 182 1
340 189 1
341 8 1
341 12 1
341 15 1
341 35 1
341 38 1
341 48 1
341 50 1
341 81 1
341 101 1
341 104 1
341 137 1
341 175 1
341 186 1
342 29 1
342 74 1
342 76 1
342 97 1
342 103 1
342 163 1
342 191 1
343 5 1
343 45 1
343 49 1
343 57 1
343 59 1
343 93 1
343 103 1
343 126 1
343 145 1
343 160 1
343 179 1
343 200 1
344 4 1
344 5 1
344 12 2
344 13 1
344 20 2
344 22 1
344 42 1
344 55 1
344 61 1
344 66 1
344 77 1
344 85 1
344 89 1
344 91 1
344 140 1
344 149 1
344 164 1
344 175 1
344 194 1
344 197 1
344 200 1
345 2 1
345 18 1
345 53 1
345 56 1
345 99 1
345 102 1
345 105 1
345 140 1
345 171 1
345 178 2
345 179 1
345 185 1
345 189 1
345 198 1
346 4 1
346 7 2
346 20 1
346 45 1
346 57 1
346 74 1
346 111 1
346 115 1
346 125 1
346 128 1
346 133 1
346 134 1
346 143 1
346 144 1
346 163 1
346 179 1
347 3 1
347 4 1
347 62 1
347 70 1
347 88 1
347 92 1
347 103 1
347 112 1
347 119 1
347 141 1
347 152 1
347 167 1
347 186 1
348 10 2
348 33 1
348 51 1
348 84 1
348 139 1
348 141 1
348 142 1
348 152 1
348 184 1
348 186 1
348 195 1
349 8 1
349 28 1
349 39 1
349 60 1
349 67 1
349 76 1
349 110 1
349 119 2
349 139 1
349 151 1
349 155 1
349 157 1
349 197 1
350 1 1
350 12 1
350 36 1
350 43 1
350 47 1
350 62 1
350 74 1
350 75 1
350 100 1
350 109 1
350 122 1
350 125 1
350 146 1
350 151 1
350 153 1
350 157 1
350 181 1
351 2 1
351 52 1
351 57 2
351 74 1
351 91 1
351 179 1
351 194 1
351 198 2
352 10 1
352 13 1
352 14 1
352 18 1
352 42 1
352 43 1
352 47 2
352 53 1
352 70 1
352 88 1
352 115 1
352 118 1
352 127 1
352 129 1
352 153 1
352 167 1
353 13 1
353 16 1
353 21 1
353 108 1
353 185 1
353 187 1
353 188 1
353 190 1
353 193 2
354 6 1
354 21 1
354 26 1
354 30 1
354 33 1
354 96 1
354 105 1
354 109 1
354 110 1
354 136 1
354 170 1
354 176 1
354 193 1
354 194 1
355 21 1
355 32 1
355 83 1
355 146 1
355 164 2
355 172 1
355 180 1
355 193 1
356 29 1
356 36 1
356 41 1
356 54 1
356 89 1
356 135 3
356 146 1
356 187 1
356 188 1
357 6 1
357 45 1
357 102 1
357 115 1
357 142 1
357 172 2
357 174 1
357 182 1
357 189 1
357 193 1
358 27 1
358 43 1
358 54 1
358 76 1
358 77 1
358 80 1
358 92 1
358 95 1
358 115 1
358 126 1
358 143 1
358 152 2
358 163 1
358 176 1
358 178 1
358 183 1
359 5 1
359 9 1
359 14 1
359 26 1
359 40 1
359 91 1
359 114 1
359 126 2
359 153 1
360 7 1
360 20 1
360 34 1
360 37 1
360 87 1
360 91 1
360 123 1
360 149 1
360 188 1
361 30 1
361 42 1
361 59 1
361 98 1
361 103 1
361 112 1
361 115 1
361 117 1
361 147 1
361 151 2
361 169 1
361 178 1
362 32 1
362 41 1
362 45 1
362 62 1
362 65 1
362 67 1
362 69 1
362 98 1
362 103 1
362 115 1
362 116 1
362 125 1
362 159 2
362 191 1
363 20 1
363 23 1
363 24 1
363 39 1
363 58 1
363 60 1
363 85 1
363 86 2
363 90 1
363 108 1
363 130 1
363 136 1
363 138 1
363 158 1
363 162 1
363 168 1
363 175 1
364 53 2
364 75 1
364 78 1
364 83 1
364 104 1
364 108 1
364 124 1
364 126 1
364 140 1
364 142 1
364 149 1
364 152 1
364 162 1
364 163 1
364 190 1
365 22 1
365 48 1
365 54 1
365 58 1
365 62 1
365 74 1
365 75 1
365 80 1
365 81 1
365 94 1
365 102 1
365 114 1
365 126 1
365 133 1
365 139 1
365 169 2
365 170 1
365 188 1
366 29 1
366 34 1
366 44 1
366 60 1
366 67 1
366 93 1
366 106 1
366 117 1
366 118 1
366 128 1
366 143 1
366 146 1
366 151 1
366 167 1
366 200 1
367 3 1
367 23 1
367 24 1
367 25 1
367 67 1
367 77 1
367 80 1
367 135 1
367 139 1
367 172 1
367 179 1
367 193 1
368 14 1
368 36 1
368 46 1
368 54 1
368 56 1
368 72 1
368 73 1
368 88 2
368 114 1
368 127 1
368 144 1
368 166 1
368 172 1
368 190 1
368 200 1
369 51 2
369 54 1
369 80 1
369 123 1
369 138 1
369 161 1
369 197 2
370 53 1
370 54 1
370 69 2
370 72 1
370 87 1
370 135 1
370 158 1
370 171 1
370 172 1
370 181 1
370 197 1
371 5 2
371 9 1
371 18 1
371 19 1
371 47 1
371 78 1
371 84 1
371 98 1
371 113 1
371 122 1
371 127 1
371 146 1
371 147 1
371 152 2
371 160 1
371 167 1
371 185 1
371 199 1
372 1 1
372 14 2
372 26 1
372 42 2
372 56 1
372 60 1
372 62 1
372 87 1
372 88 1
372 90 1
372 99 1
372 120 1
372 133 1
372 150 1
372 160 2
372 178 2
372 189 1
372 191 1
373 15 1
373 22 1
373 30 1
373 44 1
373 55 1
373 67 1
373 87 1
373 95 1
373 117 1
373 134 1
373 145 1
373 179 1
373 184 1
373 189 2
373 191 1
373 198 1
374 20 2
374 41 1
374 60 1
374 72 1
374 75 1
374 81 1
374 82 1
374 100 1
374 123 1
374 129 1
374 131 1
374 144 1
374 180 1
374 187 1
374 188 1
374 190 1
375 28 1
375 33 1
375 43 1
375 46 1
375 51 1
375 58 1
375 105 2
375 106 1
375 119 1
375 124 1
375 131 1
375 140 1
375 176 1
375 189 1
375 193 1
375 197 2
376 5 1
376 6 2
376 16 1
376 18 1
376 43 1
376 53 1
376 55 1
376 73 1
376 74 2
376 85 1
376 98 2
376 102 1
376 114 1
376 116 1
376 125 1
376 141 1
376 145 1
376 152 1
376 192 1
377 17 1
377 24 2
377 27 1
377 29 1
377 40 1
377 58 1
377 62 2
377 67 1
377 70 1
377 74 1
377 85 1
377 86 1
377 149 1
377 151 1
377 168 1
377 198 1
378 35 1
378 39 1
378 71 1
378 76 1
378 78 1
378 98 1
378 106 1
378 113 1
378 181 1
378 184 1
379 3 1
379 9 1
379 21 1
379 35 1
379 36 1
379 58 1
379 65 1
379 93 1
379 102 1
379 130 1
379 153 1
379 159 1
379 162 1
379 186 1
379 193 1
379 198 1
380 8 1
380 14 1
380 30 1
380 42 1
380 48 1
380 61 1
380 67 1
380 69 1
380 75 1
380 84 1
380 110 1
380 114 1
380 158 1
380 169 1
380 195 1
381 15 1
381 16 1
381 47 1
381 56 1
381 91 1
381 95 1
381 97 1
381 104 1
381 138 1
381 153 1
381 166 1
381 169 1
381 181 1
381 193 1
381 194 1
382 2 1
382 8 3
382 22 1
382 51 2
382 57 1
382 60 1
382 85 1
382 102 1
382 109 1
382 112 1
382 129 1
382 148 1
382 166 1
382 182 1
382 198 1
383 5 1
383 67 1
383 90 1
383 107 1
383 122 1
383 126 1
384 27 2
384 42 1
384 48 1
384 57 1
384 69 1
384 70 1
384 75 1
384 80 1
384 87 1
384 99 1
384 120 1
384 141 1
384 148 1
384 160 1
384 177 1
385 12 1
385 13 1
385 35 2
385 38 1
385 44 1
385 59 1
385 70 1
385 79 1
385 84 1
385 92 1
385 95 1
385 137 1
385 143 1
385 167 1
385 172 1
385 195 1
386 22 1
386 85 1
386 118 1
386 130 1
386 191 1
387 4 1
387 13 1
387 19 1
387 22 1
387 55 2
387 72 1
387 81 1
387 87 1
387 92 1
387 115 1
387 121 1
387 133 1
387 134 1
387 144 1
387 156 1
387 161 1
387 173 1
387 191 1
388 26 1
388 47 1
388 62 1
388 79 1
388 97 1
388 122 1
388 123 1
388 151 1
388 161 1
388 166 1
388 172 1
388 182 1
388 196 2
388 197 1
389 21 1
389 47 2
389 78 1
389 137 1
389 148 1
389 169 2
389 176 1
389 199 1
389 200 3
390 66 1
390 67 1
390 140 1
390 151 1
390 181 1
390 192 1
391 2 1
391 8 1
391 17 1
391 45 1
391 49 1
391 55 1
391 58 1
391 66 1
391 68 1
391 82 1
391 83 1
391 97 1
391 100 1
391 104 1
391 127 1
391 138 1
391 140 1
391 143 1
391 156 1
391 161 1
391 165 1
391 168 1
391 174 1
391 197 1
392 21 1
392 28 1
392 34 1
392 53 1
392 55 1
392 87 1
392 88 1
392 90 1
392 111 1
392 130 1
392 158 1
392 184 1
392 199 1
393 3 1
393 12 1
393 38 2
393 43 1
393 52 1
393 69 1
393 73 1
393 96 1
393 101 1
393 104 1
393 153 1
393 172 1
393 174 1
393 183 1
394 5 1
394 32 2
394 37 1
394 52 1
394 81 1
394 87 1
394 123 1
394 125 1
394 165 1
394 170 1
394 191 1
395 14 1
395 15 1
395 18 1
395 33 2
395 38 1
395 49 1
395 51 1
395 54 1
395 66 1
395 74 1
395 93 1
395 110 1
396 6 1
396 18 1
396 38 1
396 54 1
396 60 1
396 61 1
396 62 1
396 63 1
396 75 1
396 83 1
396 95 1
396 108 1
396 152 1
396 158 1
396 174 1
396 175 1
396 178 1
397 3 1
397 18 1
397 33 1
397 38 1
397 63 1
397 81 1
397 93 1
397 95 1
397 101 1
397 110 1
397 116 1
397 124 1
397 156 1
397 180 1
397 183 3
397 186 3
397 187 1
397 194 1
398 19 1
398 37 1
398 46 1
398 53 1
398 55 1
398 61 2
398 78 1
398 134 1
398 138 1
398 139 1
398 180 1
399 8 1
399 12 1
399 31 1
399 41 1
399 52 1
399 76 1
399 101 1
399 150 1
399 151 2
400 9 1
400 28 1
400 36 1
400 37 1
400 82 2
400 89 1
400 126 1
400 145 1
400 161 1
400 194 1
401 71 1
401 74 1
401 75 1
401 95 1
401 96 1
401 107 1
401 108 1
401 137 1
401 143 1
401 144 1
401 147 1
401 159 1
401 168 1
402 1 1
402 36 1
402 49 1
402 66 1
402 89 1
402 104 1
402 124 1
402 133 1
402 143 1
402 162 1
402 173 1
403 6 1
403 10 1
403 26 1
403 42 1
403 61 1
403 81 2
403 89 2
403 99 1
403 117 1
403 143 1
403 146 1
403 182 2
403 191 1
404 15 1
404 33 1
404 35 1
404 51 1
404 56 1
404 62 1
404 76 2
404 107 1
404 111 1
404 153 1
404 164 1
404 169 1
404 191 1
404 199 1
405 10 1
405 34 1
405 36 1
405 48 1
405 65 1
405 67 1
405 74 1
405 75 1
405 83 1
405 89 1
405 90 1
405 99 1
405 112 1
405 123 1
405 133 1
405 143 1
405 168 1
406 22 1
406 29 1
406 31 1
406 32 1
406 36 1
406 69 1
406 125 1
406 126 1
406 131 1
406 133 1
406 134 1
406 138 1
406 190 2
407 15 1
407 17 1
407 21 1
407 53 1
407 61 2
407 73 1
407 95 1
408 38 1
408 42 2
408 43 1
408 53 1
408 73 1
408 77 1
408 84 2
408 86 1
408 97 1
408 123 1
408 140 1
408 146 1
408 162 1
408 181 1
409 60 1
409 82 1
409 83 1
409 99 1
409 148 1
409 151 2
409 154 1
409 160 2
409 199 1
410 26 1
410 31 1
410 47 1
410 78 1
410 79 1
410 127 1
410 138 1
410 158 1
410 166 1
411 1 1
411 9 1
411 19 1
411 25 1
411 27 1
411 34 1
411 46 1
411 71 1
411 76 1
411 82 1
411 103 1
411 115 1
411 148 1
411 149 1
411 174 1
411 186 1
412 3 1
412 25 1
412 50 1
412 58 1
412 122 1
412 123 1
412 128 1
412 156 1
412 185 1
413 5 1
413 21 2
413 26 1
413 33 1
413 39 1
413 54 1
413 58 1
413 65 1
413 71 1
413 88 1
413 112 1
413 115 1
413 157 1
413 195 1
414 15 1
414 36 1
414 55 1
414 85 1
414 88 1
414 114 1
414 120 1
414 132 1
414 136 1
414 152 1
414 163 1
414 175 1
414 186 1
414 197 1
415 4 2
415 7 1
415 10 2
415 20 2
415 27 1
415 40 1
415 72 1
415 90 1
415 122 1
415 125 1
415 128 1
415 131 1
415 145 1
415 146 1
415 150 1
415 161 1
415 189 1
416 2 1
416 23 1
416 36 1
416 64 1
416 66 1
416 114 1
416 128 1
416 134 1
416 147 1
416 157 1
416 160 1
416 165 1
416 172 1
416 175 1
417 41 1
417 46 1
417 104 1
417 119 1
417 123 2
417 131 2
417 137 1
417 148 1
417 166 1
417 179 1
417 183 1
417 195 1
418 28 1
418 67 1
418 91 1
418 103 1
418 142 1
418 165 1
418 174 1
418 186 1
418 194 1
419 5 1
419 39 1
419 41 1
419 46 2
419 76 1
419 79 1
419 127 1
419 141 1
419 156 1
419 160 1
419 188 1
419 197 1
420 61 1
420 81 1
420 91 1
420 95 1
420 109 1
420 126 1
420 137 1
420 145 1
420 185 1
421 23 1
421 27 1
421 50 1
421 53 1
421 71 1
421 80 1
421 96 1
421 108 1
421 136 1
421 145 1
421 163 1
421 172 1
421 174 1
421 182 1
421 193 1
422 6 1
422 9 2
422 13 1
422 14 1
422 18 1
422 32 1
422 95 1
422 125 2
422 128 2
422 131 1
422 150 1
422 169 1
422 181 1
422 199 1
423 1 1
423 7 1
423 12 1
423 61 1
423 104 1
423 109 1
423 110 1
423 118 1
423 174 1
423 188 2
424 19 1
424 24 1
424 31 1
424 40 1
424 62 1
424 65 1
424 142 1
424 153 1
424 167 1
424 172 1
424 183 1
424 184 1
424 193 1
424 194 1
424 200 1
425 3 1
425 12 1
425 13 1
425 26 1
425 53 1
425 56 1
425 79 1
425 104 1
425 114 2
425 176 1
425 182 1
425 187 1
425 189 1
426 20 1
426 25 1
426 33 1
426 34 1
426 63 1
426 76 1
426 126 1
426 139 1
426 143 1
426 144 1
426 157 1
426 184 2
426 188 1
427 12 1
427 13 1
427 14 1
427 25 1
427 43 1
427 44 1
427 74 1
427 82 1
427 103 1
427 120 1
427 171 1
427 175 1
427 200 2
428 16 1
428 32 1
428 37 1
428 57 1
428 60 1
428 69 1
428 75 1
428 80 1
428 96 1
429 10 1
429 16 1
429 23 1
429 42 1
429 64 1
429 76 1
429 85 1
429 95 1
429 118 1
429 142 1
429 161 1
429 189 1
429 193 1
430 3 1
430 11 1
430 12 1
430 17 1
430 42 1
430 63 1
430 96 2
430 100 1
430 108 1
430 109 1
430 124 2
430 147 2
430 148 1
430 166 1
430 192 1
430 193 1
431 10 1
431 13 1
431 61 1
431 93 1
431 118 1
431 137 1
431 148 1
431 166 1
431 183 1
431 194 1
432 23 1
432 37 1
432 39 1
432 53 1
432 57 2
432 59 1
432 81 1
432 97 1
432 110 1
432 132 1
432 134 1
432 155 1
432 158 1
432 164 1
432 170 1
432 182 1
432 185 1
432 190 1
432 197 1
433 3 1
433 4 1
433 25 1
433 40 1
433 71 1
433 89 1
433 102 1
433 110 1
433 127 1
433 150 1
433 164 1
433 188 1
433 193 1
433 198 1
434 9 1
434 14 1
434 27 1
434 36 1
434 51 1
434 64 1
434 82 1
434 91 1
434 100 1
434 104 1
434 114 1
434 141 1
434 158 1
434 185 1
435 14 2
435 61 1
435 104 1
435 117 1
435 122 1
435 144 1
435 180 1
436 8 2
436 19 1
436 28 1
436 39 2
436 51 1
436 55 1
436 57 2
436 62 1
436 69 1
436 73 1
436 74 1
436 85 1
436 106 1
436 108 1
436 121 1
436 122 2
436 123 1
436 133 1
436 136 1
436 145 1
436 164 1
436 183 1
437 46 1
437 67 1
437 97 1
437 99 1
437 120 1
437 125 2
437 151 5
437 168 1
437 169 1
437 171 1
437 173 1
437 178 1
437 183 1
437 192 1
437 198 1
438 5 1
438 15 1
438 91 1
438 95 1
438 96 2
438 114 1
438 121 1
438 131 1
438 145 2
438 152 1
438 159 2
438 160 1
438 179 1
438 189 1
439 3 1
439 20 1
439 42 1
439 67 1
439 78 1
439 106 1
439 122 1
439 138 1
439 145 1
439 156 1
439 163 1
439 164 1
439 171 1
439 180 1
439 197 1
440 12 1
440 15 1
440 20 1
440 21 1
440 25 2
440 37 1
440 40 1
440 68 1
440 69 1
440 111 1
440 136 1
440 142 1
440 148 2
440 163 1
441 10 1
441 20 1
441 24 1
441 25 1
441 43 1
441 78 3
441 112 1
441 142 1
441 165 1
441 169 1
441 174 2
442 21 1
442 27 1
442 66 1
442 85 1
442 123 1
442 128 1
442 152 3
442 155 1
442 162 1
442 171 1
442 175 1
443 10 1
443 38 1
443 41 1
443 57 1
443 77 1
443 96 1
443 123 1
443 133 1
443 144 1
443 159 2
443 173 1
443 174 2
443 177 1
443 178 1
444 33 1
444 34 1
444 43 1
444 45 1
444 64 1
444 83 1
444 95 1
444 170 1
444 198 2
445 7 1
445 26 1
445 36 1
445 63 1
445 68 1
445 89 1
445 136 1
445 153 1
445 171 1
445 174 1
445 182 1
446 11 1
446 16 1
446 31 1
446 42 1
446 97 1
446 125 1
446 138 1
446 142 2
446 158 1
446 183 1
446 187 1
447 3 1
447 32 1
447 36 1
447 46 1
447 61 1
447 97 1
447 130 1
447 141 1
447 167 1
447 180 2
448 79 1
448 113 1
448 133 3
448 163 1
448 189 1
448 192 2
448 197 1
449 5 1
449 47 1
449 49 1
449 102 1
449 104 1
449 109 1
449 116 1
449 139 1
449 144 1
449 153 2
449 155 1
449 173 1
449 177 1
449 178 1
450 71 2
450 75 1
450 84 1
450 94 1
450 131 1
450 142 1
450 150 1
450 154 1
450 155 1
450 191 1
451 66 1
451 89 1
451 114 1
451 117 1
451 120 1
451 133 1
451 144 1
451 154 2
451 170 1
451 176 1
451 178 1
451 180 1
451 190 1
451 199 1
452 14 1
452 64 1
452 76 1
452 80 1
452 94 1
452 95 2
452 118 1
452 128 1
452 137 1
452 148 1
452 169 1
452 183 2
452 188 1
452 192 1
453 5 2
453 10 2
453 53 1
453 74 1
453 78 1
453 117 1
453 130 1
453 132 1
453 135 1
453 156 1
453 161 1
453 191 1
453 196 1
454 19 2
454 29 1
454 69 1
454 82 1
454 93 1
454 109 1
454 134 2
454 136 1
454 156 1
455 3 1
455 25 1
455 31 1
455 56 1
455 77 1
455 92 1
455 105 1
455 115 1
455 119 2
455 120 1
455 121 1
455 145 1
455 147 1
455 176 1
455 187 1
456 16 1
456 39 1
456 49 2
456 54 1
456 59 1
456 69 1
456 77 1
456 84 1
456 92 2
456 103 1
456 114 1
456 126 1
456 139 1
456 143 1
456 146 1
456 156 1
456 157 1
456 189 1
456 192 1
456 193 1
456 198 2
457 14 1
457 39 1
457 48 1
457 57 1
457 66 1
457 84 1
457 115 1
457 116 1
457 122 1
457 134 1
457 154 1
457 165 1
457 183 1
457 185 1
457 195 3
458 17 1
458 48 1
458 71 1
458 100 1
458 106 1
458 109 1
458 145 1
458 150 1
458 157 1
458 177 1
458 178 1
458 199 1
459 15 1
459 20 1
459 40 1
459 53 1
459 98 1
459 116 1
459 122 1
459 165 1
459 183 1
460 4 1
460 16 2
460 61 1
460 62 2
460 63 1
460 66 1
460 69 1
460 76 1
460 78 1
460 90 1
460 122 1
460 140 1
460 142 1
460 148 1
460 155 1
460 171 1
460 180 1
461 3 1
461 57 1
461 58 2
461 76 1
461 110 1
461 143 1
461 163 1
461 169 1
461 185 1
462 8 1
462 32 1
462 112 1
462 133 1
462 137 1
462 150 1
463 22 1
463 28 1
463 49 1
463 50 1
463 61 1
463 82 1
463 98 1
463 100 1
463 107 1
463 111 1
463 141 1
463 148 1
463 157 1
463 162 1
463 165 1
463 166 1
463 169 1
463 179 1
464 45 1
464 47 1
464 52 2
464 56 1
464 61 1
464 67 1
464 69 2
464 85 1
464 128 1
464 150 1
464 152 2
464 160 2
464 178 1
464 188 1
464 192 1
464 193 1
464 198 1
465 2 1
465 3 1
465 6 1
465 20 1
465 31 1
465 48 1
465 57 1
465 59 1
465 74 1
465 88 1
465 106 1
465 148 1
465 155 1
465 160 1
465 164 1
465 190 1
466 11 1
466 27 1
466 32 1
466 76 1
466 98 1
466 110 2
466 112 1
466 135 1
466 138 1
466 144 1
466 153 1
466 171 1
466 179 1
466 188 2
466 193 1
466 200 1
467 14 1
467 17 1
467 32 1
467 33 1
467 38 1
467 45 1
467 48 1
467 55 1
467 58 1
467 64 1
467 87 1
467 114 1
467 126 1
467 175 1
467 185 1
467 189 1
468 4 1
468 21 1
468 39 1
468 65 1
468 67 1
468 76 1
468 85 1
468 135 1
468 137 1
468 147 2
468 180 1
468 189 1
468 194 1
469 16 1
469 17 2
469 52 1
469 59 1
469 68 1
469 92 1
469 98 1
469 111 1
469 112 2
469 118 2
469 139 1
469 159 1
469 174 1
469 193 1
470 2 1
470 17 1
470 22 1
470 24 1
470 29 1
470 30 1
470 39 1
470 54 1
470 56 1
470 62 1
470 98 1
470 101 1
470 139 1
470 169 1
470 177 2
470 182 1
470 184 1
471 1 2
471 84 1
471 89 1
471 99 1
471 124 1
471 163 1
472 8 1
472 13 1
472 27 1
472 32 1
472 67 1
472 84 1
472 88 1
472 108 1
472 143 1
473 35 1
473 41 1
473 65 1
473 69 1
473 71 1
473 84 1
473 94 1
473 96 1
473 112 1
473 114 1
473 115 1
473 159 1
473 171 1
473 187 1
473 193 1
474 2 2
474 8 1
474 43 1
474 88 1
474 118 1
474 124 1
474 128 1
474 152 1
474 158 1
474 167 2
475 19 1
475 30 1
475 38 1
475 49 1
475 67 1
475 95 1
475 100 1
475 115 1
475 170 1
475 183 1
476 4 1
476 9 1
476 55 1
476 66 1
476 70 1
476 75 2
476 84 1
476 100 1
476 103 1
476 109 1
476 138 1
476 144 1
476 170 1
476 176 1
476 199 1
477 44 1
477 63 1
477 65 1
477 68 1
477 77 1
477 80 1
477 85 1
477 88 1
477 89 1
477 137 2
477 144 1
477 161 2
478 23 1
478 38 1
478 54 2
478 74 1
478 77 1
478 87 1
478 91 1
478 129 1
478 133 1
478 141 1
478 156 1
478 170 1
478 179 2
478 184 2
479 6 1
479 10 1
479 43 1
479 52 1
479 102 1
479 106 1
479 139 1
479 143 1
479 145 1
479 168 1
479 173 1
479 179 1
479 183 1
480 3 1
480 4 1
480 46 1
480 50 1
480 59 1
480 69 1
480 92 1
480 95 2
480 99 1
480 116 1
480 128 1
480 140 1
480 154 1
480 157 1
480 165 1
480 168 1
480 172 1
480 188 2
481 18 1
481 38 1
481 39 1
481 68 1
481 80 1
481 97 1
481 103 1
481 106 1
481 111 1
481 114 1
481 136 2
481 151 1
481 159 1
481 167 1
481 177 1
481 198 1
482 5 1
482 51 2
482 52 1
482 54 1
482 89 1
482 139 1
482 146 1
482 166 1
482 170 1
483 11 1
483 13 1
483 18 1
483 44 1
483 52 1
483 65 2
483 75 1
483 84 1
483 86 1
483 118 1
483 121 1
483 123 1
483 183 1
483 192 1
484 9 1
484 13 1
484 17 1
484 18 1
484 22 1
484 56 1
484 86 1
484 104 1
484 148 1
484 154 1
484 160 1
485 10 1
485 39 1
485 41 1
485 57 1
485 58 1
485 104 1
485 122 1
485 130 1
485 141 1
485 146 1
485 155 1
485 162 1
485 174 1
485 178 1
485 189 1
486 2 1
486 3 1
486 16 1
486 19 1
486 23 1
486 44 1
486 61 1
486 63 1
486 75 1
486 84 2
486 85 1
486 103 1
486 121 1
486 158 1
486 178 1
486 192 1
486 193 1
487 3 1
487 20 1
487 53 1
487 66 1
487 101 1
487 128 1
487 132 1
487 136 1
487 141 1
487 156 1
487 157 1
487 171 1
487 180 2
487 191 1
487 196 1
488 4 1
488 24 1
488 37 1
488 49 1
488 54 1
488 67 1
488 99 1
488 118 1
488 122 1
488 123 1
488 127 2
488 130 1
488 131 1
488 151 1
488 155 2
488 166 1
488 171 1
488 174 2
488 176 2
489 24 1
489 33 1
489 47 1
489 54 1
489 56 1
489 57 1
489 70 1
489 115 1
489 116 1
489 125 1
489 126 1
489 132 1
489 133 1
489 153 1
489 176 2
489 185 1
489 197 1
490 30 1
490 44 1
490 50 1
490 61 1
490 89 2
490 100 1
490 146 1
490 151 1
490 181 1
490 183 1
491 33 1
491 45 1
491 61 1
491 72 1
491 76 1
491 78 1
491 79 1
491 107 1
491 125 1
491 170 1
491 176 2
491 188 1
492 4 1
492 7 1
492 41 1
492 57 1
492 97 1
492 124 1
492 133 1
492 144 1
492 168 1
492 190 1
492 197 1
493 12 1
493 13 1
493 16 1
493 20 1
493 43 1
493 80 1
493 124 1
493 126 1
493 160 1
493 165 1
493 172 1
493 180 1
494 2 1
494 4 1
494 44 1
494 50 1
494 61 2
494 68 2
494 96 1
494 138 1
494 143 1
494 145 1
494 148 1
494 157 1
494 158 1
494 162 1
494 172 1
494 176 1
495 35 1
495 41 1
495 53 1
495 77 1
495 83 2
495 125 1
495 162 1
495 167 1
495 172 1
495 173 1
495 183 1
496 12 1
496 13 1
496 15 1
496 35 2
496 54 2
496 62 1
496 63 1
496 126 1
496 135 1
496 144 1
496 161 1
496 163 1
496 196 1
497 3 1
497 13 1
497 48 1
497 68 1
497 82 1
497 84 1
497 94 1
497 107 1
497 118 1
497 137 1
497 143 1
497 153 1
497 162 1
497 165 1
497 179 1
497 200 1
498 14 1
498 19 1
498 21 1
498 43 1
498 59 1
498 80 1
498 94 1
498 99 1
498 105 1
498 114 1
498 119 1
498 168 1
498 169 1
498 174 1
498 196 1
499 4 1
499 22 2
499 30 1
499 42 1
499 92 1
499 95 1
499 97 1
499 129 1
499 135 2
499 146 1
499 156 1
499 170 1
499 171 1
499 176 1
499 182 1
500 11 1
500 17 1
500 48 2
500 112 1
500 127 1
500 133 1
500 147 1
500 160 1
500 169 1
500 180 1
500 189 1
500 196 1
500 197 1
500 199 1
501 30 2
501 41 1
501 64 1
501 101 1
501 104 1
501 111 1
501 115 1
501 119 1
501 160 1
501 200 1
502 12 2
502 21 1
502 29 1
502 61 1
502 66 1
502 78 1
502 85 1
502 91 1
502 103 1
502 120 2
502 136 1
502 166 1
502 170 1
502 185 1
503 7 1
503 34 1
503 36 2
503 56 1
503 107 1
503 134 1
503 155 1
503 156 1
503 192 1
503 197 1
503 199 1
504 9 1
504 17 1
504 26 1
504 32 2
504 74 1
504 79 1
504 96 1
504 103 1
504 108 1
504 111 1
504 120 1
504 121 1
504 134 1
504 138 1
504 143 1
504 200 1
505 1 1
505 9 2
505 25 1
505 44 1
505 61 1
505 92 1
505 115 1
505 135 1
505 181 1
505 194 1
506 20 1
506 67 1
506 69 1
506 84 1
506 169 1
506 175 1
506 177 1
506 183 1
506 185 1
506 188 1
507 14 1
507 36 1
507 40 1
507 49 1
507 70 1
507 74 1
507 106 1
507 122 1
507 147 1
507 162 1
507 182 1
507 187 3
507 189 1
508 31 1
508 34 1
508 86 1
508 89 1
508 98 1
508 120 1
508 139 1
508 145 1
508 161 1
508 170 1
508 181 1
508 197 1
509 9 1
509 11 1
509 18 1
509 27 1
509 35 1
509 53 1
509 63 1
509 86 1
509 103 1
509 109 1
509 113 1
509 118 1
509 153 2
509 175 1
509 182 1
509 188 1
509 196 1
510 3 1
510 6 1
510 13 1
510 56 1
510 68 1
510 78 1
510 82 1
510 121 1
510 159 1
510 174 1
510 182 1
510 191 1
510 197 1
511 5 1
511 10 1
511 12 1
511 15 1
511 21 1
511 28 1
511 39 1
511 40 1
511 91 1
511 102 1
511 121 2
511 123 1
511 167 1
511 187 1
511 190 1
511 198 1
512 25 1
512 34 2
512 44 1
512 51 2
512 62 2
512 76 1
512 80 1
512 123 1
512 146 1
512 159 1
512 180 1
512 184 1
513 6 1
513 14 1
513 20 1
513 25 1
513 45 1
513 54 1
513 55 1
513 75 1
513 95 1
513 97 1
513 136 1
513 169 1
513 175 1
513 180 1
513 186 1
513 197 1
513 199 1
514 8 1
514 19 1
514 21 1
514 34 1
514 67 1
514 68 1
514 77 1
514 93 1
514 99 1
514 109 1
514 120 1
514 126 1
514 129 1
514 168 1
514 193 1
515 35 1
515 43 1
515 45 1
515 52 1
515 63 1
515 66 1
515 76 2
515 92 1
515 119 1
515 122 1
515 142 1
515 159 1
515 180 1
515 188 1
515 197 1
516 28 2
516 37 1
516 59 1
516 62 2
516 68 1
516 75 1
516 76 1
516 82 1
516 107 1
516 110 1
516 152 1
516 159 1
516 161 1
516 167 1
516 176 1
516 182 1
516 192 1
517 14 1
517 24 1
517 31 1
517 48 1
517 68 2
517 80 1
517 90 1
517 95 1
517 98 1
517 118 1
517 129 1
517 130 1
517 138 1
517 158 1
518 14 1
518 22 1
518 35 1
518 43 1
518 68 1
518 97 1
518 109 1
518 121 1
518 144 1
518 162 1
518 190 1
519 5 1
519 13 1
519 16 1
519 18 2
519 19 1
519 49 1
519 53 1
519 56 1
519 74 1
519 112 1
519 133 3
519 138 1
519 163 1
519 164 1
519 191 1
520 5 1
520 12 1
520 24 1
520 40 1
520 60 1
520 64 1
520 67 1
520 87 1
520 92 1
520 94 1
520 99 2
520 135 1
520 138 1
520 163 2
520 166 1
520 184 1
520 194 1
521 5 3
521 11 1
521 18 1
521 22 1
521 40 1
521 42 1
521 43 1
521 45 1
521 56 1
521 73 1
521 85 1
521 87 1
521 128 1
521 137 1
521 151 1
521 164 1
521 171 2
522 16 1
522 79 1
522 89 1
522 99 1
522 112 2
522 121 1
522 155 1
523 28 1
523 42 1
523 54 1
523 69 1
523 80 1
523 150 1
523 174 1
524 6 2
524 21 1
524 44 1
524 47 1
524 56 1
524 84 1
524 87 1
524 98 2
524 127 1
524 174 1
524 179 1
524 184 1
525 8 1
525 15 1
525 22 2
525 29 1
525 60 1
525 63 1
525 114 1
525 138 1
525 141 1
525 143 1
525 180 1
525 192 1
526 9 1
526 19 1
526 39 1
526 40 1
526 60 1
526 63 1
526 84 2
526 99 1
526 103 1
526 115 1
526 123 1
526 157 1
526 175 1
526 190 1
526 199 1
527 21 1
527 62 1
527 112 1
527 114 1
527 121 1
527 146 2
527 163 1
527 172 1
527 175 2
527 176 1
527 187 1
527 197 1
528 7 1
528 34 1
528 36 1
528 44 1
528 51 1
528 54 1
528 64 1
528 76 1
528 77 1
528 100 2
528 130 1
528 135 1
528 143 1
528 148 1
528 154 1
528 179 1
528 189 1
529 5 1
529 20 1
529 24 1
529 38 1
529 48 1
529 54 1
529 88 1
529 150 1
529 190 1
530 3 1
530 14 1
530 15 2
530 29 1
530 46 1
530 55 1
530 112 1
530 116 1
530 117 1
530 126 1
530 135 1
530 139 1
530 169 1
530 183 1
530 185 1
530 186 1
530 197 1
530 198 1
531 10 1
531 20 1
531 42 1
531 50 1
531 54 1
531 87 1
531 90 1
531 156 1
531 158 2
531 168 1
531 169 1
531 177 1
532 29 1
532 56 1
532 59 1
532 61 1
532 92 1
532 93 1
532 103 1
532 111 1
532 116 1
532 123 1
532 171 1
532 189 1
533 10 1
533 18 1
533 37 1
533 38 1
533 59 1
533 66 2
533 68 2
533 88 1
533 96 1
533 104 1
533 105 1
533 118 1
533 146 1
533 156 1
533 163 1
533 173 1
533 187 1
533 199 1
534 1 1
534 7 1
534 23 1
534 31 1
534 42 1
534 53 1
534 63 1
534 80 1
534 84 1
534 99 1
534 103 1
534 107 1
534 116 1
534 132 1
534 139 1
534 142 1
534 182 1
534 196 1
535 17 1
535 21 1
535 22 1
535 64 1
535 77 2
535 82 1
535 84 1
535 85 1
535 90 1
535 116 1
535 129 1
535 130 1
535 149 1
535 154 1
535 176 2
536 20 1
536 28 1
536 44 3
536 46 1
536 89 1
536 103 1
536 134 1
536 153 1
536 166 1
536 180 1
536 193 1
537 11 1
537 14 1
537 109 2
537 135 1
537 163 1
537 164 1
537 165 1
537 172 1
537 187 1
537 195 1
538 10 1
538 11 1
538 22 1
538 28 1
538 44 1
538 60 1
538 109 1
538 111 1
538 120 1
538 164 1
538 185 1
538 192 1
539 53 2
539 58 1
539 94 1
539 97 1
539 100 1
539 112 1
539 163 1
539 165 1
539 173 1
539 181 1
539 191 1
540 21 1
540 36 1
540 65 1
540 71 2
540 92 2
540 94 1
540 96 1
540 108 1
540 119 1
540 127 3
540 133 1
540 188 1
541 28 1
541 36 1
541 53 1
541 71 1
541 74 1
541 76 1
541 91 1
541 104 1
541 111 1
541 137 1
541 167 1
541 176 1
541 191 1
542 97 1
542 120 1
542 158 1
542 174 1
542 193 1
543 36 1
543 51 1
543 78 1
543 88 1
543 106 1
543 118 1
543 129 1
543 133 1
543 150 1
543 151 1
543 162 1
543 165 1
543 168 1
543 173 1
543 188 1
544 10 1
544 11 1
544 65 1
544 76 1
544 90 1
544 103 2
544 105 1
544 115 2
544 116 1
544 140 1
544 146 1
544 155 1
544 156 1
544 170 1
544 172 1
544 186 1
544 197 1
545 3 1
545 11 3
545 29 1
545 44 1
545 49 1
545 91 1
545 103 1
545 106 1
545 112 1
545 127 1
545 144 1
545 153 1
545 172 3
545 198 1
546 12 1
546 21 1
546 36 1
546 40 1
546 54 1
546 59 1
546 60 1
546 64 1
546 66 1
546 151 1
546 153 1
546 166 1
546 174 1
547 18 1
547 33 1
547 40 2
547 88 1
547 119 1
547 164 1
547 171 1
547 191 1
548 22 1
548 42 1
548 45 1
548 114 1
548 125 1
548 138 1
548 139 1
548 140 1
548 164 1
548 165 1
548 180 1
548 185 1
549 30 1
549 55 1
549 60 1
549 69 2
549 72 1
549 109 1
549 115 1
549 117 2
549 122 1
549 131 1
549 146 2
549 163 1
550 14 1
550 16 1
550 23 1
550 29 1
550 39 1
550 43 2
550 54 2
550 58 1
550 77 1
550 122 1
550 134 1
550 137 1
550 139 1
550 141 1
550 154 1
550 173 1
551 1 1
551 17 1
551 38 1
551 81 1
551 117 1
551 169 1
551 178 1
552 2 1
552 24 1
552 36 1
552 37 1
552 67 1
552 89 1
552 94 1
552 103 1
552 120 1
552 126 1
552 132 1
552 140 1
552 166 1
552 176 1
552 190 1
553 8 2
553 39 1
553 49 1
553 60 1
553 68 2
553 84 1
553 95 1
553 113 1
553 141 1
553 161 1
553 185 1
554 22 1
554 28 1
554 29 1
554 70 1
554 71 1
554 85 1
554 100 1
554 103 1
554 112 1
554 115 1
554 150 1
554 173 1
555 4 1
555 71 1
555 93 1
555 97 1
555 103 1
555 121 1
555 132 1
555 139 1
555 169 1
555 176 1
555 178 1
555 187 1
556 8 1
556 12 1
556 26 1
556 29 1
556 30 1
556 42 1
556 51 1
556 68 1
556 101 1
556 102 1
556 114 1
556 120 1
556 125 1
556 131 1
556 144 1
556 154 1
556 172 1
556 181 1
556 187 1
556 188 1
557 2 1
557 21 1
557 28 1
557 30 1
557 42 1
557 48 1
557 52 1
557 61 1
557 69 1
557 76 1
557 78 1
557 80 1
557 93 1
557 95 1
557 116 1
557 120 1
557 125 1
557 127 1
557 144 1
557 152 1
557 161 1
557 186 1
557 194 1
557 198 1
558 10 1
558 13 1
558 20 1
558 34 1
558 60 1
558 92 1
558 124 1
558 142 1
558 150 1
558 154 1
558 158 1
558 194 1
558 198 1
559 6 1
559 9 1
559 17 1
559 32 1
559 68 1
559 73 1
559 113 1
559 122 1
559 135 1
559 150 1
559 172 1
559 174 1
559 175 1
559 180 1
559 183 2
560 13 1
560 22 1
560 50 1
560 70 1
560 83 1
560 89 1
560 93 1
560 96 1
560 106 1
560 122 1
560 137 1
560 154 1
560 167 1
561 9 1
561 14 1
561 51 1
561 57 1
561 77 1
561 95 1
561 99 1
561 102 1
561 147 1
561 161 1
561 184 1
561 190 1
561 194 1
562 14 1
562 28 1
562 48 1
562 60 1
562 92 1
562 106 1
562 127 1
562 148 1
562 158 1
562 159 2
562 193 1
562 199 1
563 24 1
563 56 1
563 88 1
563 101 1
563 107 1
563 112 2
563 115 1
563 161 1
563 166 1
563 167 1
563 194 2
564 32 1
564 41 1
564 49 2
564 66 1
564 156 1
564 157 1
565 15 2
565 25 1
565 44 1
565 45 1
565 67 1
565 79 1
565 80 1
565 102 1
565 127 1
565 139 1
565 152 1
565 178 1
565 196 1
566 8 1
566 13 1
566 19 1
566 20 1
566 60 1
566 83 1
566 95 1
566 123 1
566 175 1
566 176 1
567 17 1
567 19 1
567 30 1
567 32 2
567 39 1
567 48 1
567 66 1
567 108 1
567 128 2
567 180 1
567 189 1
568 3 1
568 5 1
568 33 1
568 82 1
568 90 1
568 96 1
568 112 1
568 117 1
568 127 1
568 147 1
568 191 1
568 192 1
569 22 1
569 40 1
569 55 1
569 59 1
569 69 1
569 70 2
569 86 1
569 93 2
569 96 1
569 97 2
569 122 1
569 133 1
569 145 1
569 170 1
570 24 1
570 29 1
570 43 1
570 82 1
570 105 1
570 106 1
570 111 1
570 112 1
570 164 1
570 173 1
571 28 1
571 36 1
571 43 1
571 55 1
571 93 1
571 106 1
571 111 1
571 116 2
571 135 1
571 168 1
571 177 1
571 184 1
572 6 1
572 16 1
572 23 1
572 58 1
572 87 1
572 122 1
572 127 1
572 130 1
572 180 1
572 199 1
573 6 1
573 9 2
573 35 2
573 50 1
573 58 1
573 59 1
573 74 1
573 81 1
573 83 1
573 88 1
573 143 1
573 153 1
573 161 1
573 188 1
573 189 1
574 6 1
574 11 1
574 40 1
574 71 1
574 92 1
574 109 1
574 136 1
574 137 1
574 141 1
574 145 1
574 167 2
575 19 1
575 80 1
575 83 1
575 128 2
575 145 1
575 153 1
575 169 1
575 182 1
575 189 1
575 193 1
576 10 1
576 26 1
576 31 1
576 51 1
576 55 1
576 59 1
576 60 1
576 64 1
576 78 1
576 87 1
576 89 1
576 98 1
576 160 1
576 164 1
576 178 1
576 191 1
576 193 1
576 195 1
577 4 1
577 12 1
577 15 1
577 29 1
577 40 1
577 50 1
577 82 1
577 84 1
577 89 1
577 90 1
577 112 1
577 123 1
577 141 2
577 167 1
577 171 1
577 174 2
577 186 1
577 195 1
578 13 1
578 29 1
578 52 1
578 65 1
578 70 1
578 83 1
578 89 1
578 101 1
578 119 1
578 131 1
578 167 1
578 197 2
579 9 1
579 11 1
579 20 1
579 40 1
579 68 1
579 98 1
579 116 1
579 159 1
579 182 1
580 2 1
580 5 1
580 19 1
580 73 2
580 108 1
580 122 1
580 124 1
580 149 1
580 164 1
580 177 1
580 189 1
580 199 1
581 35 1
581 81 1
581 84 1
581 101 1
581 126 1
581 127 1
581 142 1
581 150 1
581 158 2
581 168 1
581 186 1
581 187 1
581 190 1
582 7 1
582 20 1
582 62 1
582 63 1
582 70 1
582 76 1
582 83 1
582 93 1
582 94 1
582 105 1
582 115 1
582 130 1
582 145 1
582 183 1
583 2 1
583 5 1
583 15 1
583 79 1
583 83 1
583 101 1
583 103 1
583 107 1
583 116 1
583 130 1
583 136 1
583 137 1
583 138 1
583 158 1
583 178 1
584 27 1
584 29 1
584 34 1
584 41 1
584 108 1
584 146 1
584 147 1
584 154 1
584 168 1
584 175 1
584 179 1
584 182 1
584 188 1
584 190 1
584 195 1
585 10 1
585 12 1
585 50 1
585 61 1
585 70 1
585 73 1
585 84 1
585 92 1
585 105 1
585 123 1
585 126 1
585 129 1
585 142 1
585 145 1
585 160 1
585 175 1
585 187 1
585 189 1
586 4 1
586 20 1
586 25 1
586 40 1
586 41 1
586 60 1
586 69 1
586 121 2
586 181 1
586 186 1
586 188 1
586 189 1
586 193 1
587 3 1
587 13 1
587 23 1
587 32 1
587 42 2
587 62 2
587 69 1
587 116 1
587 120 1
587 137 1
587 138 1
587 154 1
588 9 1
588 10 1
588 24 2
588 31 1
588 84 1
588 87 1
588 113 1
588 116 1
588 136 1
588 142 1
588 163 1
588 165 1
588 168 1
588 189 1
588 196 1
589 14 1
589 15 1
589 20 1
589 23 1
589 33 1
589 43 1
589 46 1
589 87 2
589 122 2
589 123 1
589 126 1
589 131 1
589 152 1
589 153 1
589 163 1
589 173 1
589 177 1
589 199 1
590 23 1
590 63 1
590 71 1
590 94 1
590 103 1
590 117 1
590 119 1
590 185 1
590 194 1
590 199 2
590 200 1
591 23 2
591 57 1
591 96 1
591 97 1
591 101 1
591 107 1
591 114 1
591 137 1
591 162 1
591 180 1
591 183 1
591 194 1
592 17 2
592 38 1
592 129 1
592 150 1
592 152 1
592 171 1
592 175 1
593 3 1
593 21 1
593 37 1
593 38 1
593 70 1
593 89 1
593 96 1
593 111 1
593 121 1
593 144 1
593 169 2
593 177 1
593 180 2
593 191 1
593 194 1
593 198 1
594 5 1
594 7 1
594 38 1
594 56 1
594 57 1
594 84 1
594 118 1
594 123 1
594 129 1
594 181 1
594 188 1
594 189 1
594 194 1
594 200 1
595 1 1
595 61 1
595 73 1
595 82 1
595 97 1
595 115 1
595 132 1
595 140 1
595 143 2
595 156 1
595 161 1
595 162 1
595 175 1
595 181 1
596 6 1
596 20 1
596 30 1
596 31 1
596 38 1
596 50 1
596 81 1
596 84 1
596 104 1
596 139 1
596 169 1
596 193 1
596 199 1
597 37 1
597 44 1
597 51 1
597 77 1
597 92 1
597 127 1
597 147 1
597 153 1
597 169 1
597 193 1
598 28 1
598 39 1
598 56 1
598 57 1
598 68 1
598 131 1
598 144 1
598 156 1
598 160 1
598 166 1
598 171 1
598 178 2
598 187 1
599 21 1
599 37 1
599 55 2
599 62 1
599 94 1
599 118 1
599 134 1
599 149 1
599 163 1
600 6 1
600 30 1
600 31 1
600 61 1
600 72 1
600 75 1
600 76 1
600 78 1
600 97 1
600 118 1
600 128 1
600 150 1
600 154 1
600 159 1
600 170 1
600 199 1
601 32 1
601 47 1
601 51 1
601 80 1
601 87 1
601 103 1
601 124 1
601 144 1
601 158 1
601 176 1
602 4 1
602 8 1
602 41 1
602 54 1
602 81 1
602 82 1
602 88 1
602 92 1
602 107 1
602 119 1
602 122 1
602 138 1
602 149 1
602 155 1
602 159 1
602 169 1
602 182 1
602 186 1
603 7 1
603 62 1
603 73 1
603 83 1
603 134 1
603 136 1
603 149 1
603 151 1
603 155 1
603 156 1
603 176 1
603 179 1
603 182 1
603 186 1
604 12 1
604 15 1
604 29 1
604 60 2
604 96 1
604 103 1
604 105 1
604 131 1
604 152 1
604 180 1
604 181 1
605 10 1
605 24 1
605 26 1
605 28 1
605 39 1
605 41 1
605 67 2
605 68 1
605 74 1
605 88 1
605 95 1
605 134 1
605 150 1
605 166 1
605 180 1
605 182 1
605 194 1
605 198 2
605 199 1
606 6 1
606 7 1
606 27 1
606 31 1
606 71 1
606 73 1
606 91 1
606 110 1
606 123 1
606 127 1
606 132 1
606 160 1
606 189 1
607 5 1
607 6 1
607 53 1
607 57 1
607 62 1
607 75 1
607 103 1
607 124 1
607 133 1
607 139 1
607 141 1
607 154 1
607 155 1
607 158 1
607 162 1
607 173 1
607 197 1
608 23 1
608 38 1
608 39 1
608 59 1
608 60 1
608 61 1
608 99 1
608 109 1
608 138 1
608 199 2
609 6 1
609 8 1
609 29 1
609 66 2
609 81 1
609 95 1
609 129 1
609 140 1
609 150 1
609 159 1
609 163 1
609 164 1
609 172 1
609 190 1
609 196 1
610 33 1
610 44 1
610 51 1
610 97 1
610 103 1
610 116 1
610 124 1
610 133 1
610 138 1
610 145 1
610 177 1
610 180 1
611 1 2
611 11 1
611 13 1
611 17 1
611 27 1
611 40 1
611 58 1
611 71 1
611 86 1
611 102 1
611 116 1
611 139 2
611 143 1
611 150 2
611 174 1
611 191 1
612 2 2
612 6 1
612 10 1
612 12 1
612 38 1
612 43 1
612 56 1
612 86 1
612 99 1
612 121 1
612 135 1
612 153 1
612 157 1
612 190 1
612 192 1
613 10 1
613 31 1
613 34 1
613 42 1
613 44 1
613 67 1
613 78 1
613 95 1
613 104 1
613 106 1
613 138 1
613 143 1
613 153 1
613 179 1
613 183 1
614 31 1
614 75 1
614 107 1
614 115 1
614 118 1
614 120 1
614 121 1
614 133 2
614 167 1
614 180 1
614 181 1
614 195 1
615 10 1
615 12 1
615 50 1
615 93 1
615 99 1
615 162 1
615 174 1
616 5 1
616 19 1
616 69 1
616 75 1
616 97 1
616 98 1
616 101 1
616 124 1
616 128 1
616 130 1
616 138 2
616 162 1
616 167 1
616 175 1
616 183 1
617 31 1
617 44 1
617 78 1
617 111 1
617 131 1
617 137 1
617 181 1
618 15 1
618 25 1
618 49 1
618 52 1
618 57 1
618 60 1
618 65 1
618 81 1
618 103 1
618 149 1
618 177 1
618 199 1
619 17 1
619 32 1
619 59 1
619 98 1
619 103 1
619 104 1
619 121 1
619 137 2
619 139 1
619 147 1
620 2 1
620 30 1
620 39 1
620 46 1
620 55 1
620 56 1
620 71 1
620 81 1
620 90 1
620 91 1
620 121 1
620 124 1
620 163 1
620 171 1
620 182 1
620 188 1
620 194 1
620 195 2
621 18 1
621 24 1
621 47 1
621 55 1
621 62 2
621 101 1
621 107 1
621 120 1
621 150 1
621 174 1
622 7 1
622 22 1
622 29 1
622 36 1
622 48 1
622 49 1
622 73 1
622 74 1
622 88 1
622 137 1
622 141 1
622 169 2
622 184 1
622 186 1
622 200 1
623 8 1
623 22 1
623 42 1
623 49 1
623 57 1
623 111 1
623 114 1
623 141 1
623 142 1
623 145 1
623 152 1
623 182 1
623 193 2
623 200 1
624 8 1
624 29 1
624 38 1
624 48 2
624 73 1
624 79 1
624 99 1
624 103 1
624 115 2
624 121 1
624 126 2
624 166 1
624 169 1
624 173 1
625 25 1
625 31 1
625 54 1
625 93 2
625 106 1
625 115 1
625 133 1
625 147 1
625 153 1
625 157 1
626 28 1
626 57 1
626 68 2
626 70 1
626 89 1
626 108 1
626 115 1
626 120 1
626 124 1
626 141 1
626 143 1
626 147 1
626 182 1
626 185 1
626 189 1
627 36 1
627 40 1
627 49 1
627 52 1
627 95 1
627 119 1
627 144 1
627 153 1
627 176 1
627 188 1
627 194 1
628 38 1
628 41 1
628 79 1
628 104 1
628 116 1
628 130 1
628 131 1
628 159 1
628 162 1
628 169 1
629 5 1
629 8 1
629 45 1
629 60 1
629 63 1
629 71 1
629 84 2
629 93 1
629 94 1
629 101 1
629 137 1
629 139 1
629 144 1
629 148 1
629 159 1
629 160 1
629 166 1
629 173 1
629 175 1
629 178 1
630 10 1
630 47 1
630 49 1
630 55 1
630 75 1
630 91 1
630 101 1
630 108 1
630 114 2
630 119 1
630 120 1
630 122 1
630 177 1
630 180 1
630 182 1
630 190 1
630 192 1
631 7 1
631 24 1
631 25 1
631 30 2
631 53 1
631 67 2
631 75 1
631 84 1
631 98 1
631 100 1
631 109 1
631 116 1
631 129 1
631 141 1
632 7 1
632 23 1
632 33 2
632 36 1
632 40 1
632 73 1
632 88 1
632 95 1
632 101 1
632 122 1
632 123 2
632 137 1
632 144 1
633 38 1
633 40 1
633 50 1
633 54 1
633 55 2
633 58 1
633 66 1
633 94 1
633 96 1
633 111 1
633 135 1
633 139 1
633 144 1
633 147 1
633 179 1
633 181 1
634 1 1
634 14 2
634 28 2
634 32 1
634 46 1
634 48 1
634 52 1
634 63 1
634 72 1
634 77 1
634 84 1
634 119 2
634 122 1
634 124 1
634 142 1
634 149 1
634 151 1
634 170 1
635 15 1
635 16 1
635 39 1
635 45 1
635 67 1
635 95 1
635 100 1
635 119 1
635 132 1
635 134 1
635 161 2
635 166 1
636 2 1
636 59 1
636 63 1
636 81 1
636 91 1
636 92 1
636 105 1
636 106 2
636 123 1
636 130 1
636 133 1
636 135 1
636 138 1
636 143 1
637 17 1
637 18 1
637 24 1
637 38 1
637 43 1
637 62 1
637 64 1
637 66 1
637 69 1
637 72 1
637 76 1
637 84 1
637 95 1
637 160 1
637 169 1
637 190 1
637 195 1
638 4 1
638 6 1
638 26 1
638 29 1
638 32 1
638 72 1
638 78 1
638 83 1
638 85 1
638 121 1
638 123 1
638 139 1
638 141 1
638 146 1
638 167 2
638 169 1
638 173 1
638 174 1
638 195 1
639 2 1
639 6 1
639 102 1
639 124 1
639 128 2
639 159 2
640 20 1
640 28 1
640 37 1
640 40 1
640 43 1
640 55 1
640 72 1
640 75 1
640 84 1
640 86 1
640 89 1
640 95 1
640 105 1
640 128 1
640 131 1
640 132 1
640 143 1
640 144 1
640 156 1
640 166 1
640 168 1
640 173 1
640 175 1
640 184 1
640 189 1
640 190 1
640 198 3
640 199 1
641 28 1
641 38 1
641 45 1
641 58 1
641 65 1
641 79 1
641 110 1
641 120 3
641 123 1
641 132 1
641 152 2
641 160 1
641 172 1
641 190 1
642 9 2
642 14 1
642 27 1
642 36 1
642 86 1
642 100 2
642 108 1
642 116 1
642 146 1
642 150 1
642 153 1
642 154 1
642 165 1
642 168 1
642 174 2
642 195 1
642 199 1
643 9 1
643 14 1
643 29 1
643 30 1
643 34 1
643 38 1
643 41 1
643 56 1
643 71 1
643 81 1
643 82 1
643 103 1
643 107 1
643 125 1
643 136 1
643 137 1
643 150 1
643 171 1
643 176 1
643 191 1
643 194 1
644 9 1
644 18 1
644 41 1
644 43 1
644 48 2
644 75 1
644 99 1
644 110 1
644 117 1
644 124 1
644 134 1
644 148 1
644 163 1
644 166 1
644 194 1
645 18 1
645 23 1
645 57 1
645 61 1
645 69 1
645 90 1
645 111 1
645 115 1
645 120 1
645 126 1
645 158 1
645 167 1
645 169 2
645 195 1
646 3 1
646 13 1
646 20 1
646 30 1
646 40 1
646 50 1
646 58 1
646 60 1
646 81 1
646 85 1
646 96 1
646 100 1
646 106 1
646 128 1
646 131 1
646 164 1
646 171 1
646 190 1
646 199 1
647 21 1
647 28 1
647 35 1
647 58 1
647 88 1
647 106 1
647 127 1
647 181 1
647 194 1
647 198 1
648 14 1
648 27 1
648 29 1
648 34 1
648 54 1
648 68 1
648 85 1
648 118 1
648 133 1
648 173 1
648 179 1
648 188 1
648 200 1
649 7 1
649 9 1
649 12 1
649 20 1
649 22 1
649 27 1
649 54 1
649 81 1
649 100 2
649 118 1
649 144 1
650 15 1
650 23 1
650 38 2
650 56 1
650 65 1
650 88 1
650 101 1
650 149 1
650 168 1
650 170 1
650 180 1
650 191 1
650 198 1
651 13 1
651 14 1
651 49 1
651 64 1
651 100 1
651 105 1
651 127 1
651 130 1
651 138 1
651 157 2
652 12 1
652 13 1
652 39 1
652 55 1
652 70 1
652 85 1
652 96 1
652 136 1
652 171 1
652 173 1
652 175 1
652 177 1
652 187 1
652 193 1
652 197 1
653 6 1
653 7 1
653 13 1
653 31 1
653 33 1
653 89 1
653 92 1
653 105 1
653 128 1
653 151 1
653 154 1
653 168 1
653 173 1
653 174 1
653 186 2
654 1 1
654 17 1
654 21 1
654 22 1
654 47 1
654 58 1
654 59 1
654 71 1
654 83 2
654 88 1
654 149 1
654 150 1
654 183 1
654 185 2
655 21 1
655 34 1
655 53 1
655 55 1
655 77 1
655 86 1
655 87 1
655 96 1
655 117 1
655 120 1
655 150 1
655 152 1
656 10 1
656 11 1
656 49 1
656 66 1
656 69 1
656 76 1
656 92 1
656 99 2
656 103 1
656 145 1
656 199 1
657 1 1
657 15 1
657 33 1
657 41 2
657 59 1
657 67 1
657 72 1
657 93 1
657 94 1
657 104 1
657 109 1
657 110 1
657 133 1
657 137 1
657 148 1
657 162 1
658 8 1
658 46 1
658 58 1
658 85 1
658 99 1
658 102 1
658 126 1
658 132 1
658 133 1
658 138 1
658 151 1
658 155 1
658 191 1
659 5 2
659 9 1
659 15 1
659 45 1
659 55 1
659 61 1
659 63 1
659 80 1
659 84 2
659 113 1
659 137 1
659 161 1
659 163 1
659 181 1
659 197 1
660 5 1
660 15 1
660 25 1
660 27 1
660 69 2
660 79 1
660 87 1
660 98 1
660 138 1
660 143 1
660 161 1
660 170 1
660 182 1
661 40 1
661 64 1
661 71 1
661 150 1
661 157 1
661 165 1
662 22 1
662 38 1
662 50 1
662 57 1
662 65 1
662 67 1
662 79 1
662 89 1
662 100 1
662 130 1
662 135 1
662 151 1
662 163 1
662 178 1
662 189 1
663 18 1
663 19 1
663 30 1
663 41 1
663 84 1
663 85 1
663 86 1
663 99 1
663 124 1
663 126 1
663 134 1
663 149 1
663 152 1
663 175 3
663 194 1
664 5 1
664 11 1
664 13 1
664 20 1
664 21 1
664 24 1
664 30 1
664 46 1
664 47 1
664 49 1
664 54 1
664 62 1
664 74 1
664 75 1
664 120 1
664 130 1
664 132 1
664 142 1
664 174 1
664 175 1
664 186 1
665 21 1
665 26 1
665 78 1
665 104 1
665 151 1
665 169 1
665 172 1
665 174 1
665 191 1
666 1 1
666 23 3
666 39 1
666 44 1
666 50 1
666 69 1
666 79 1
666 81 1
666 85 1
666 113 1
666 128 1
666 153 1
666 166 1
667 28 1
667 33 2
667 41 1
667 67 1
667 73 1
667 90 1
667 96 1
667 103 1
667 125 1
667 150 1
667 167 2
668 1 1
668 25 1
668 50 1
668 59 1
668 72 1
668 75 1
668 119 1
668 122 2
668 130 2
668 140 1
668 149 1
668 151 1
668 191 1
669 41 2
669 59 1
669 82 2
669 158 1
669 182 1
669 184 1
669 199 1
669 200 1
670 1 1
670 27 1
670 58 1
670 74 1
670 82 1
670 101 1
670 113 1
670 120 2
670 128 2
670 140 1
670 147 1
670 162 1
670 189 2
671 17 1
671 38 1
671 44 1
671 68 1
671 89 1
671 95 1
671 100 1
671 105 1
671 126 1
671 139 1
671 146 1
671 149 1
671 174 1
672 41 1
672 45 1
672 61 1
672 89 1
672 101 1
672 108 1
672 122 1
672 131 1
672 132 2
672 145 1
672 151 1
672 156 1
672 158 1
672 168 1
672 192 1
673 7 1
673 28 1
673 64 3
673 68 1
673 81 1
673 90 1
673 93 1
673 134 1
673 144 1
673 149 1
673 172 1
674 9 1
674 10 1
674 15 1
674 53 1
674 57 1
674 142 1
674 199 1
674 200 1
675 11 1
675 26 2
675 33 2
675 43 1
675 69 1
675 76 1
675 113 1
675 135 2
675 136 2
675 139 1
675 179 2
675 184 1
675 189 1
676 34 1
676 38 1
676 50 1
676 60 1
676 76 1
676 96 1
676 98 2
676 121 2
676 177 1
676 186 1
676 194 2
677 20 1
677 78 1
677 83 1
677 91 2
677 121 2
677 122 1
677 126 1
677 140 2
677 148 1
677 153 1
677 158 1
677 169 1
677 170 1
677 181 1
677 187 1
678 14 1
678 22 1
678 34 1
678 38 1
678 48 1
678 64 1
678 67 1
678 75 1
678 85 2
678 93 1
678 123 1
678 125 2
678 126 1
678 147 1
678 155 1
678 181 1
679 1 1
679 5 1
679 6 1
679 16 2
679 66 1
679 69 1
679 82 1
679 88 2
679 93 1
679 94 1
679 104 1
679 145 2
679 184 1
679 190 1
680 4 1
680 6 1
680 25 1
680 31 1
680 114 1
680 115 1
680 118 1
680 135 1
680 139 1
680 143 1
680 155 1
680 171 1
680 182 1
680 198 1
681 6 1
681 42 1
681 58 1
681 66 1
681 94 1
681 96 1
681 125 1
681 140 1
681 141 2
681 161 1
682 1 1
682 12 1
682 46 1
682 74 1
682 87 1
682 94 1
682 108 1
682 110 1
682 112 1
682 114 1
682 129 1
682 139 1
682 145 1
682 152 1
682 162 1
682 196 1
683 4 1
683 5 1
683 26 1
683 32 1
683 36 1
683 52 1
683 60 1
683 61 1
683 65 1
683 67 1
683 76 1
683 82 1
683 83 1
683 94 1
683 112 1
683 128 1
683 136 1
683 153 1
684 13 1
684 51 1
684 57 1
684 58 1
684 65 1
684 66 1
684 79 1
684 101 1
684 111 1
684 118 1
684 126 1
684 129 1
684 136 1
684 158 1
684 162 1
684 178 1
684 196 1
685 3 1
685 61 1
685 81 1
685 105 1
685 108 1
685 115 1
685 118 1
685 141 1
685 174 1
685 180 1
685 186 1
685 194 1
686 3 1
686 20 1
686 30 1
686 32 1
686 37 1
686 50 2
686 58 1
686 71 1
686 76 1
686 83 1
686 95 1
686 102 1
686 108 1
686 118 1
686 137 1
686 142 1
686 152 1
686 156 1
687 6 1
687 9 1
687 47 1
687 60 1
687 81 1
687 119 1
687 133 1
687 136 1
687 153 1
687 154 1
687 160 1
687 161 1
687 192 2
688 12 1
688 22 1
688 34 1
688 36 1
688 40 1
688 48 3
688 53 1
688 57 1
688 89 1
688 137 1
688 140 2
688 148 1
688 150 1
688 160 1
688 166 1
688 181 1
688 193 1
688 195 1
688 197 1
688 198 1
689 35 1
689 42 1
689 51 1
689 77 1
689 98 1
689 101 1
689 105 1
689 120 2
689 133 2
689 138 1
689 186 1
690 4 1
690 9 1
690 16 1
690 42 1
690 43 1
690 47 1
690 64 1
690 69 1
690 72 1
690 111 1
690 120 1
690 126 1
690 128 1
690 172 1
690 186 2
690 199 2
691 17 1
691 22 1
691 42 1
691 52 1
691 53 1
691 54 1
691 72 1
691 88 1
691 97 1
691 99 2
691 113 3
691 124 1
691 128 2
691 153 1
691 163 1
691 178 1
691 188 1
691 193 1
691 199 1
692 39 1
692 62 1
692 99 2
692 106 1
692 119 1
692 128 1
692 139 1
692 164 1
693 15 1
693 51 1
693 77 1
693 116 1
693 117 1
693 120 1
693 121 1
693 125 1
693 136 1
693 142 1
693 163 1
693 167 1
694 48 1
694 73 2
694 81 1
694 89 1
694 113 1
694 131 2
694 140 1
694 161 1
694 182 1
694 184 1
694 190 1
694 194 1
695 8 1
695 9 1
695 31 1
695 39 1
695 62 1
695 65 1
695 89 1
695 101 1
695 117 1
695 124 1
695 131 1
695 132 1
695 138 1
695 151 1
695 190 1
696 8 1
696 25 1
696 36 1
696 46 1
696 54 2
696 66 1
696 73 1
696 100 1
696 109 1
696 112 1
696 114 1
696 118 1
696 119 2
696 148 1
696 172 1
696 185 1
696 196 1
697 35 1
697 42 1
697 50 1
697 58 1
697 72 1
697 75 1
697 76 2
697 83 1
697 109 1
697 113 1
697 157 1
697 158 1
697 166 1
697 176 1
697 177 1
697 187 1
697 193 1
698 29 1
698 35 1
698 65 1
698 81 1
698 89 1
698 165 1
698 170 1
698 188 1
698 193 1
698 200 1
699 59 1
699 68 1
699 70 1
699 87 1
699 99 1
699 109 1
699 117 1
699 133 1
699 139 1
699 141 1
699 153 1
699 157 1
699 172 1
699 177 1
699 187 1
699 193 1
700 4 1
700 37 1
700 45 1
700 65 1
700 75 1
700 101 1
700 106 1
700 119 1
700 165 1
700 166 1
700 198 1
701 12 1
701 29 1
701 67 1
701 69 1
701 94 1
701 127 2
701 146 1
701 149 1
701 151 1
701 185 1
701 188 1
701 189 1
702 46 1
702 70 1
702 110 1
702 135 1
702 142 1
702 153 1
702 161 1
703 14 1
703 33 2
703 41 2
703 44 2
703 75 1
703 92 1
703 109 1
703 125 1
703 131 1
703 135 1
703 169 1
703 175 1
703 186 1
704 1 1
704 18 1
704 66 1
704 78 1
704 81 1
704 138 1
704 144 1
704 149 1
704 183 1
705 3 1
705 17 1
705 20 3
705 26 1
705 36 1
705 42 1
705 63 1
705 79 1
705 80 1
705 94 1
705 97 1
705 137 1
705 178 1
706 7 1
706 25 1
706 35 1
706 36 3
706 69 1
706 86 1
706 91 1
706 94 1
706 115 1
706 139 1
706 150 1
706 170 1
706 184 1
706 199 1
707 9 1
707 13 1
707 58 1
707 68 1
707 77 1
707 84 1
707 89 1
707 92 1
707 113 1
707 155 1
707 159 1
707 168 1
707 171 1
707 172 1
707 173 1
707 196 1
708 37 2
708 43 1
708 59 1
708 69 1
708 84 1
708 86 2
708 104 1
708 113 1
708 143 2
708 170 1
708 172 1
708 178 1
708 194 1
709 15 1
709 32 1
709 35 1
709 36 1
709 40 1
709 42 1
709 63 1
709 88 1
709 91 1
709 110 1
709 118 1
709 153 1
709 178 1
709 186 1
709 189 1
709 198 1
710 5 1
710 7 1
710 12 1
710 15 1
710 26 1
710 37 1
710 92 1
710 109 1
710 121 2
710 131 1
710 144 1
710 161 1
710 163 1
710 182 1
710 183 1
710 184 1
710 190 1
711 4 1
711 28 1
711 36 1
711 49 1
711 75 1
711 77 1
711 81 1
711 85 1
711 91 1
711 92 2
711 97 2
712 5 1
712 9 1
712 33 1
712 38 1
712 47 1
712 61 1
712 69 1
712 90 1
712 92 1
712 96 1
712 99 1
712 101 1
712 104 1
712 116 1
712 128 1
712 135 1
712 144 1
712 165 1
712 167 1
712 174 1
712 180 1
713 5 1
713 11 1
713 25 1
713 34 1
713 53 1
713 91 1
713 105 1
713 107 1
713 165 2
713 173 1
713 193 1
714 1 1
714 34 1
714 53 1
714 58 1
714 61 1
714 91 1
714 114 1
714 127 1
714 128 1
714 133 1
714 156 1
714 158 2
714 164 1
714 166 1
715 40 1
715 48 1
715 50 1
715 64 1
715 66 1
715 69 1
715 73 1
715 74 1
715 81 1
715 98 1
715 105 1
715 139 1
715 140 1
715 172 2
715 183 1
715 194 1
715 199 1
716 35 1
716 53 1
716 60 1
716 62 1
716 69 1
716 124 1
716 127 1
716 139 1
716 156 2
716 187 1
716 200 1
717 4 1
717 27 1
717 29 1
717 43 1
717 50 1
717 56 1
717 92 1
717 111 1
717 150 1
717 178 1
717 180 1
718 17 2
718 23 1
718 33 1
718 35 1
718 108 1
718 125 1
718 130 1
718 143 1
718 161 1
718 188 1
718 196 1
719 33 1
719 46 1
719 49 1
719 92 1
719 93 1
719 121 1
719 150 1
719 163 1
719 184 1
719 185 1
719 193 1
720 7 1
720 31 2
720 41 1
720 48 1
720 55 1
720 69 1
720 73 1
720 82 1
720 90 1
720 131 1
720 146 1
720 148 1
720 162 1
720 173 1
720 175 1
720 187 1
721 1 1
721 45 1
721 103 1
721 104 1
721 130 1
721 136 1
721 139 1
721 155 1
721 159 1
721 200 1
722 12 1
722 15 1
722 17 1
722 29 1
722 74 1
722 95 1
722 98 1
722 111 1
722 133 1
722 139 1
722 148 1
722 165 1
722 168 1
722 176 1
722 180 1
722 181 1
722 186 1
722 200 1
723 9 1
723 15 1
723 40 1
723 46 1
723 51 1
723 87 1
723 88 1
723 126 1
723 147 1
723 172 1
723 182 2
723 187 1
723 196 1
723 200 1
724 1 1
724 19 1
724 93 1
724 98 1
724 112 1
724 118 1
724 126 1
724 155 1
724 156 1
724 170 1
724 200 1
725 28 1
725 31 1
725 37 1
725 68 1
725 69 1
725 77 1
725 88 1
725 98 1
725 100 1
725 114 1
725 188 1
725 192 1
725 200 1
726 5 1
726 22 2
726 53 1
726 60 1
726 65 1
726 85 1
726 95 2
726 115 1
726 139 1
726 140 1
726 165 1
726 184 1
727 32 1
727 64 1
727 170 1
728 9 1
728 19 1
728 20 1
728 39 1
728 72 1
728 74 1
728 77 1
728 85 1
728 94 2
728 116 1
728 141 1
728 142 1
728 149 1
728 177 1
728 178 1
728 186 1
728 195 1
729 6 1
729 15 1
729 38 1
729 45 1
729 52 1
729 55 1
729 65 1
729 66 1
729 93 1
729 98 1
729 138 1
729 147 1
729 150 1
729 178 1
729 195 1
730 32 1
730 38 1
730 43 1
730 54 1
730 67 2
730 83 1
730 93 1
730 109 1
730 119 1
730 164 1
730 170 1
730 172 1
730 173 1
730 174 1
730 178 1
731 16 1
731 34 1
731 39 1
731 49 2
731 52 1
731 55 1
731 56 1
731 58 1
731 62 1
731 75 1
731 101 1
731 111 1
731 122 1
731 131 1
731 154 1
731 186 2
731 190 1
731 191 1
732 24 1
732 26 1
732 31 1
732 44 1
732 51 1
732 71 2
732 74 1
732 77 1
732 90 1
732 94 1
732 103 1
732 105 1
732 119 1
732 124 1
732 138 1
732 154 2
732 156 1
732 164 1
732 173 1
733 6 1
733 11 1
733 14 2
733 15 1
733 24 1
733 26 1
733 28 1
733 34 1
733 57 1
733 92 1
733 100 1
733 111 1
733 124 1
733 141 2
733 146 1
733 155 2
733 161 1
733 177 1
734 16 1
734 25 1
734 26 1
734 37 1
734 61 1
734 63 1
734 72 1
734 75 1
734 92 1
734 125 1
734 141 1
734 142 1
734 147 1
734 159 1
734 174 1
734 192 1
734 194 1
734 198 1
735 2 1
735 6 1
735 10 1
735 28 1
735 32 1
735 56 1
735 78 1
735 85 1
735 117 1
735 179 1
735 185 1
736 60 1
736 68 1
736 74 1
736 126 1
736 162 1
736 169 1
737 61 1
737 67 1
737 72 1
737 81 1
737 123 1
737 134 1
737 161 1
737 172 2
737 179 1
737 182 2
738 6 1
738 12 1
738 16 1
738 17 1
738 25 1
738 36 1
738 63 1
738 80 2
738 108 1
738 118 1
738 133 1
738 136 2
738 176 1
739 10 1
739 19 2
739 23 1
739 46 1
739 52 1
739 57 1
739 74 1
739 93 1
739 102 1
739 113 1
739 121 1
739 125 1
739 134 1
739 184 1
739 191 2
739 196 1
740 11 1
740 50 1
740 70 1
740 73 1
740 82 1
740 99 1
740 108 1
740 160 1
740 165 2
740 175 1
740 184 1
741 6 1
741 20 1
741 24 1
741 54 1
741 61 1
741 97 1
741 109 1
741 117 1
741 118 1
741 122 1
741 170 1
741 193 1
742 4 1
742 8 1
742 9 1
742 38 1
742 60 1
742 82 1
742 92 1
742 93 1
742 107 1
742 109 1
742 110 1
742 113 1
742 132 1
742 144 1
742 150 1
742 152 1
742 167 1
742 190 1
742 191 1
743 14 1
743 24 1
743 29 1
743 117 1
743 147 1
743 150 1
743 154 1
743 158 1
743 165 1
743 176 1
743 183 1
743 195 1
744 7 1
744 37 2
744 52 1
744 56 1
744 62 1
744 69 1
744 71 1
744 85 1
744 89 1
744 96 1
744 100 2
744 135 1
744 144 1
744 161 1
744 176 1
744 192 1
745 3 2
745 12 1
745 51 1
745 68 1
745 82 1
745 88 1
745 90 1
745 103 1
745 125 1
745 130 1
745 132 1
745 160 1
745 178 1
745 191 1
746 11 1
746 17 1
746 44 1
746 73 1
746 81 2
746 102 1
746 107 1
746 113 1
746 114 1
746 115 1
746 126 1
746 139 1
746 148 1
746 152 1
746 159 1
746 162 1
746 178 1
746 184 1
746 195 1
747 21 1
747 51 1
747 81 1
747 94 1
747 95 1
747 99 1
747 100 1
747 104 1
747 123 1
747 138 1
747 174 1
748 14 1
748 30 1
748 39 1
748 43 1
748 48 1
748 54 1
748 69 1
748 74 1
748 85 1
748 89 1
748 116 1
748 129 1
748 157 1
748 183 1
748 189 1
748 190 1
748 197 1
749 7 1
749 26 1
749 32 1
749 60 1
749 78 1
749 105 1
749 107 1
749 120 1
749 125 1
749 128 1
749 150 1
749 160 2
749 199 1
749 200 1
750 22 1
750 33 1
750 35 1
750 39 1
750 60 1
750 96 1
750 100 1
750 130 1
750 159 1
750 197 1
751 5 1
751 6 1
751 13 1
751 19 1
751 28 2
751 29 1
751 33 1
751 38 1
751 44 1
751 47 1
751 71 1
751 76 1
751 79 2
751 89 1
751 104 1
751 123 1
751 127 1
751 130 1
751 133 1
751 144 1
751 154 1
751 175 1
751 186 1
751 193 1
751 200 1
752 6 1
752 25 1
752 31 1
752 61 1
752 132 1
752 135 1
752 148 1
752 149 1
752 188 1
753 42 1
753 58 2
753 59 1
753 66 1
753 71 1
753 74 1
753 98 1
753 99 1
753 103 1
753 153 1
753 156 1
753 179 1
754 2 1
754 12 1
754 38 1
754 57 1
754 72 1
754 93 1
754 109 1
754 128 1
754 129 1
754 133 1
754 141 2
754 154 1
754 186 1
754 193 1
755 11 1
755 18 1
755 29 1
755 65 1
755 83 1
755 122 1
755 127 1
755 149 1
755 171 1
755 178 1
755 192 1
755 195 1
756 42 1
756 61 1
756 62 1
756 65 1
756 82 2
756 91 1
756 106 1
756 109 1
756 122 1
756 125 1
756 132 2
756 133 1
756 143 1
756 154 1
756 173 1
756 183 1
756 184 1
756 200 1
757 12 1
757 14 1
757 44 1
757 47 1
757 54 1
757 55 1
757 68 1
757 97 1
757 100 1
757 109 1
757 117 1
757 120 2
757 144 1
757 173 1
757 177 1
758 12 1
758 39 1
758 50 1
758 52 1
758 72 1
758 73 1
758 76 1
758 78 1
758 90 1
758 93 1
758 98 2
758 111 1
758 163 1
758 170 2
758 198 1
759 13 1
759 14 1
759 20 1
759 41 1
759 57 1
759 74 1
759 90 1
759 120 1
759 129 1
759 140 2
759 151 1
759 156 2
759 168 1
759 191 1
760 8 1
760 41 1
760 47 1
760 54 1
760 71 1
760 134 1
760 140 1
760 151 1
760 196 1
761 5 1
761 53 1
761 71 1
761 80 1
761 98 1
761 102 1
761 112 3
761 132 1
761 136 1
761 139 2
761 190 2
762 8 1
762 61 1
762 83 1
762 116 1
762 136 1
762 151 1
762 160 1
762 161 1
762 163 1
763 45 1
763 53 1
763 59 1
763 65 1
763 93 1
763 127 1
763 147 1
763 150 1
763 152 1
763 179 1
764 6 1
764 17 1
764 18 1
764 45 1
764 62 1
764 70 1
764 74 1
764 85 2
764 90 1
764 131 1
764 135 1
764 144 1
764 164 1
764 174 1
764 177 1
764 181 1
764 191 1
764 194 1
764 198 1
764 200 1
765 9 1
765 31 1
765 38 1
765 44 1
765 64 1
765 103 1
765 106 2
765 160 1
765 185 1
765 191 1
766 41 1
766 88 1
766 89 1
766 101 1
766 119 1
766 168 1
767 1 1
767 6 1
767 8 1
767 10 1
767 16 1
767 23 1
767 35 1
767 43 1
767 44 1
767 52 1
767 79 1
767 87 1
767 93 1
767 106 1
767 132 1
767 150 1
767 169 1
767 180 1
767 192 1
768 9 1
768 33 1
768 36 1
768 54 1
768 59 1
768 64 1
768 69 1
768 97 1
768 105 1
768 107 1
768 173 1
768 175 1
768 179 1
768 190 1
769 6 1
769 15 1
769 56 1
769 74 1
769 79 1
769 117 1
769 127 1
769 138 1
769 176 1
770 24 1
770 55 1
770 91 1
770 92 1
770 102 1
770 114 1
770 115 2
770 138 1
770 176 1
770 181 1
770 187 1
771 10 1
771 38 1
771 51 1
771 61 1
771 65 1
771 102 1
771 116 1
771 143 1
771 185 1
771 190 1
772 2 1
772 42 1
772 63 1
772 85 1
772 88 1
772 91 1
772 112 1
772 115 1
772 130 1
772 148 1
772 150 2
772 155 1
772 173 1
772 174 1
773 25 1
773 27 2
773 37 1
773 40 1
773 61 1
773 77 1
773 80 2
773 84 1
773 107 1
773 129 1
773 144 1
773 173 1
773 185 1
773 188 1
774 4 1
774 11 1
774 21 1
774 23 1
774 67 1
774 82 1
774 83 1
774 85 1
774 89 1
774 121 1
774 127 1
774 136 1
774 138 1
775 7 1
775 31 1
775 36 1
775 84 1
775 103 1
775 111 1
775 144 1
775 151 1
775 152 1
775 187 1
776 33 1
776 56 1
776 77 1
776 92 1
776 103 1
776 124 1
776 131 1
776 159 2
776 168 1
776 169 1
776 187 1
777 27 2
777 30 1
777 36 1
777 46 1
777 62 1
777 72 1
777 83 1
777 91 1
777 95 1
777 107 1
777 143 1
777 169 1
777 175 1
777 190 1
777 200 1
778 12 1
778 13 1
778 18 2
778 36 1
778 37 1
778 65 1
778 73 1
778 87 1
778 116 1
778 162 1
778 183 1
778 191 1
778 194 1
779 3 1
779 14 1
779 16 1
779 62 1
779 73 1
779 105 1
779 108 1
779 113 1
779 114 1
779 166 1
779 171 1
779 172 1
779 193 2
779 197 1
779 199 1
780 36 1
780 45 1
780 50 1
780 99 1
780 103 1
780 127 1
780 145 1
780 162 1
780 165 1
780 186 1
781 2 1
781 30 1
781 31 1
781 36 1
781 47 1
781 106 1
781 118 1
781 127 1
781 144 1
782 14 1
782 25 1
782 27 1
782 34 1
782 46 1
782 69 1
782 88 1
782 97 1
783 10 1
783 14 1
783 26 1
783 52 1
783 63 1
783 95 1
783 124 1
783 136 1
783 141 1
783 156 1
783 162 1
784 18 2
784 24 1
784 27 1
784 30 1
784 38 1
784 48 1
784 69 1
784 71 1
784 77 1
784 80 1
784 127 1
784 147 1
784 186 1
785 1 1
785 3 1
785 6 1
785 30 1
785 36 1
785 52 1
785 89 1
785 121 1
785 124 1
785 145 1
785 173 1
785 185 1
785 189 1
786 1 1
786 53 2
786 66 1
786 84 1
786 85 1
786 104 1
786 139 1
786 191 1
786 192 1
786 198 1
786 200 1
787 6 1
787 7 1
787 20 1
787 22 2
787 78 1
787 89 1
787 95 1
787 160 1
787 166 1
787 171 1
788 25 1
788 51 1
788 57 1
788 99 1
788 103 1
788 112 1
788 118 1
788 122 1
788 147 1
788 162 1
788 192 1
789 2 1
789 4 1
789 12 1
789 58 2
789 138 2
789 155 1
789 156 1
789 166 1
789 183 1
789 200 1
790 12 1
790 35 1
790 44 1
790 90 2
790 101 1
790 133 1
790 142 1
790 153 1
790 157 1
790 168 1
790 173 1
791 25 1
791 40 1
791 47 1
791 61 1
791 73 1
791 91 1
791 92 1
791 93 1
791 114 1
791 144 1
791 149 1
791 153 1
791 174 1
791 190 1
791 194 2
791 198 1
792 1 1
792 12 1
792 40 1
792 53 1
792 54 1
792 55 1
792 62 1
792 85 1
792 89 1
792 105 1
792 118 1
792 144 1
792 148 1
792 149 1
793 9 1
793 39 1
793 44 1
793 69 1
793 86 1
793 88 1
793 95 1
793 109 3
793 115 1
793 140 1
793 145 1
793 161 1
793 167 1
793 179 1
793 187 1
793 193 1
794 15 1
794 59 1
794 64 1
794 69 1
794 85 1
794 86 1
794 96 1
794 124 1
795 4 1
795 15 1
795 25 1
795 29 1
795 40 1
795 66 2
795 74 1
795 88 1
795 106 1
795 127 1
795 139 1
795 144 1
795 179 1
796 36 1
796 63 1
796 98 1
796 102 1
796 107 1
796 137 1
796 155 1
796 158 1
796 173 1
796 189 1
796 197 1
797 3 1
797 8 1
797 30 1
797 45 1
797 61 1
797 74 1
797 83 1
797 89 1
797 95 1
797 113 2
797 151 1
797 157 1
797 168 1
797 186 1
797 187 1
798 24 1
798 52 1
798 64 1
798 113 2
798 120 1
798 142 1
798 144 1
798 147 1
798 152 1
799 19 1
799 20 1
799 59 1
799 75 1
799 81 1
799 84 1
799 86 1
799 88 1
799 101 1
799 113 1
799 122 2
799 124 1
799 135 1
799 153 1
799 182 1
799 195 1
799 197 1
800 4 1
800 17 1
800 23 1
800 28 1
800 80 1
800 91 1
800 100 1
800 104 1
800 107 1
800 116 1
800 118 1
800 125 1
800 168 1
800 176 1
800 182 1
800 194 1
800 196 1
801 7 1
801 15 1
801 22 1
801 23 1
801 32 1
801 35 1
801 40 1
801 50 1
801 86 1
801 100 1
801 101 2
801 122 1
801 123 1
801 124 1
801 134 1
801 143 1
801 148 1
801 156 1
801 172 1
802 32 1
802 34 1
802 49 1
802 54 1
802 59 1
802 70 2
802 73 1
802 76 1
802 86 1
802 109 1
802 129 1
802 149 1
802 196 1
802 200 1
803 32 1
803 33 1
803 34 1
803 65 1
803 69 1
803 74 1
803 79 1
803 81 1
803 99 2
803 135 1
803 139 1
803 165 1
803 168 1
803 190 1
804 5 1
804 9 1
804 22 1
804 25 1
804 37 1
804 62 1
804 66 1
804 73 1
804 74 1
804 77 1
804 82 1
804 99 1
804 110 1
804 153 1
804 173 1
804 187 1
804 197 2
804 198 1
805 21 1
805 38 1
805 45 1
805 48 1
805 59 1
805 80 2
805 84 1
805 91 1
805 97 1
805 98 1
805 99 1
805 134 1
805 142 1
805 143 1
805 144 1
805 148 1
805 150 1
805 171 1
805 173 1
805 194 1
806 15 1
806 67 1
806 100 1
806 115 1
806 123 1
806 165 1
806 174 1
806 185 1
806 191 1
806 193 1
807 59 2
807 64 1
807 69 2
807 89 1
807 95 1
807 106 1
807 113 1
807 116 1
807 118 1
807 136 1
807 169 1
807 192 1
808 26 1
808 40 1
808 44 1
808 49 1
808 52 1
808 56 1
808 62 1
808 71 1
808 85 1
808 91 1
808 140 1
808 142 1
808 152 1
808 174 1
808 196 1
809 1 1
809 17 1
809 18 1
809 57 1
809 58 1
809 62 1
809 67 1
809 104 1
809 115 1
809 159 1
809 168 1
810 17 1
810 35 1
810 80 1
810 86 1
810 96 1
810 110 1
810 151 1
810 158 1
810 171 1
810 183 1
811 7 1
811 19 1
811 22 1
811 55 1
811 64 1
811 75 1
811 76 1
811 86 1
811 96 1
811 97 1
811 103 1
811 106 1
811 124 1
811 132 1
811 137 1
811 141 1
811 160 1
811 179 1
812 4 2
812 19 1
812 22 1
812 52 1
812 92 1
812 94 1
812 129 1
812 130 1
812 137 1
812 158 1
812 183 1
812 200 1
813 21 1
813 50 1
813 53 1
813 56 1
813 75 1
813 84 1
813 89 1
813 97 1
813 104 3
813 109 1
813 126 2
813 133 1
813 141 1
813 147 2
813 189 1
814 1 1
814 8 1
814 10 1
814 29 1
814 31 1
814 76 1
814 99 1
814 104 1
814 113 1
814 153 1
814 171 1
815 62 1
815 107 1
815 108 1
815 131 1
815 132 2
815 143 1
815 149 1
815 177 1
816 5 1
816 8 1
816 31 1
816 34 1
816 74 2
816 83 1
816 120 1
816 167 1
816 177 1
816 183 1
817 1 2
817 26 1
817 38 1
817 46 1
817 63 1
817 71 1
817 72 2
817 98 1
817 108 1
817 113 1
817 133 1
817 136 1
817 141 1
817 177 1
817 182 1
818 9 1
818 24 1
818 33 1
818 35 1
818 40 1
818 59 1
818 65 1
818 99 1
818 127 1
818 143 1
818 167 1
818 171 1
819 10 1
819 62 1
819 70 1
819 94 1
819 103 1
819 112 2
819 129 1
819 131 1
819 132 1
819 144 1
819 165 1
819 167 1
819 173 1
819 174 1
819 185 1
819 187 1
819 193 1
820 19 1
820 40 1
820 46 1
820 47 1
820 50 2
820 55 1
820 99 1
820 123 1
820 125 1
820 143 1
820 147 2
820 152 1
820 158 1
820 172 1
820 179 1
820 182 1
820 185 1
821 7 1
821 17 1
821 25 1
821 26 1
821 34 1
821 37 1
821 43 1
821 99 1
821 109 1
821 116 1
821 132 2
821 153 1
821 185 1
821 197 1
822 20 1
822 32 1
822 47 1
822 51 1
822 63 1
822 73 1
822 76 1
822 94 1
822 95 1
822 104 1
822 115 1
822 119 1
822 122 1
822 123 1
822 147 1
822 170 2
822 171 1
823 3 1
823 32 1
823 48 1
823 53 1
823 60 1
823 68 1
823 70 1
823 74 1
823 90 1
823 95 1
823 101 1
823 115 1
823 147 1
823 175 1
823 176 1
824 33 1
824 34 1
824 56 1
824 65 1
824 81 1
824 88 1
824 95 2
824 106 1
824 133 1
824 159 1
824 160 1
824 166 1
824 182 1
824 189 1
824 197 1
825 71 1
825 72 1
825 73 1
825 110 1
825 121 2
825 153 1
825 155 1
825 181 1
825 184 1
825 189 1
825 193 1
826 11 2
826 54 1
826 57 1
826 102 1
826 112 1
826 122 1
826 136 1
826 141 1
826 148 2
826 164 1
827 8 1
827 18 1
827 23 1
827 49 1
827 53 1
827 62 2
827 65 1
827 96 1
827 120 1
827 128 1
827 129 1
827 145 1
828 8 1
828 47 1
828 50 1
828 57 1
828 62 1
828 64 1
828 70 1
828 80 1
828 103 1
828 113 1
828 115 1
828 134 1
828 140 1
828 193 1
829 40 1
829 63 1
829 70 2
829 72 1
829 93 1
829 103 1
829 111 1
829 117 1
829 121 1
829 122 2
829 125 1
829 147 1
829 178 1
830 12 1
830 26 1
830 39 1
830 46 1
830 50 1
830 53 1
830 58 1
830 96 1
830 104 1
830 120 2
830 123 1
830 154 1
830 155 1
830 167 1
830 180 1
830 189 1
830 191 1
831 12 1
831 13 1
831 15 1
831 25 2
831 41 1
831 69 1
831 114 1
831 119 1
831 166 1
831 168 1
831 174 1
831 184 1
831 192 1
832 4 1
832 23 1
832 41 1
832 46 2
832 63 1
832 67 1
832 88 1
832 103 1
832 117 1
832 133 1
832 154 1
832 157 1
832 161 1
832 164 1
832 191 1
833 7 1
833 8 1
833 10 1
833 24 1
833 50 1
833 68 1
833 72 2
833 77 1
833 85 1
833 89 1
833 90 1
833 111 1
833 117 1
833 124 1
833 138 1
833 141 1
833 142 1
833 143 1
833 162 1
833 171 2
833 176 1
833 182 1
833 195 1
834 15 1
834 16 1
834 24 1
834 33 1
834 48 1
834 58 1
834 62 1
834 70 1
834 76 1
834 98 1
834 104 1
834 107 1
834 110 1
834 130 1
834 133 1
834 177 1
834 182 1
834 184 1
835 2 1
835 3 1
835 15 1
835 21 2
835 27 1
835 42 1
835 116 1
835 129 1
835 130 1
835 149 1
835 151 1
835 182 1
835 186 1
835 198 1
836 10 1
836 47 1
836 70 1
836 79 1
836 85 1
836 88 1
836 89 1
836 106 1
836 109 1
836 148 1
836 165 1
836 183 1
836 195 1
836 200 1
837 7 1
837 44 1
837 48 2
837 66 1
837 71 1
837 112 1
837 117 1
837 133 1
837 146 2
837 153 1
837 158 1
837 164 1
837 183 1
838 2 1
838 17 1
838 25 1
838 36 1
838 76 1
838 79 1
838 84 1
838 116 1
838 127 1
838 131 1
838 143 1
838 148 1
838 155 1
838 167 1
838 186 1
838 192 1
839 7 1
839 12 1
839 95 1
839 102 1
839 130 2
839 135 1
839 147 1
839 151 1
839 163 1
839 168 2
839 169 1
839 182 1
839 187 1
840 7 1
840 22 1
840 35 1
840 56 1
840 76 1
840 78 1
840 103 1
840 133 1
840 165 1
840 166 1
840 169 1
841 36 1
841 56 1
841 66 1
841 95 1
841 120 1
841 122 1
841 126 1
841 150 1
841 154 1
841 156 1
841 165 1
841 168 1
841 172 2
841 185 2
841 187 1
841 193 1
841 198 1
842 4 1
842 54 1
842 59 1
842 67 1
842 87 1
842 126 1
842 145 1
842 146 1
842 152 1
842 157 1
842 169 1
842 182 1
842 186 1
842 198 1
843 9 1
843 33 1
843 71 1
843 74 1
843 88 1
843 97 1
843 111 1
843 115 1
843 158 1
843 164 1
843 178 1
844 18 1
844 41 1
844 47 1
844 48 1
844 52 1
844 63 1
844 71 1
844 96 1
844 121 1
844 140 1
844 141 1
844 154 1
844 180 1
844 193 1
844 195 1
845 4 2
845 7 1
845 15 1
845 41 1
845 45 1
845 69 1
845 109 1
845 114 1
845 119 1
845 163 1
845 181 1
846 14 1
846 16 1
846 41 1
846 44 1
846 59 1
846 82 1
846 83 1
846 92 1
846 95 1
846 98 1
846 111 1
846 151 1
846 154 1
846 170 1
847 22 1
847 30 1
847 38 1
847 82 1
847 102 1
847 108 1
847 114 1
847 117 1
847 172 1
847 175 1
848 8 1
848 53 1
848 78 1
848 104 1
848 109 1
848 150 1
848 155 2
848 156 1
848 179 1
849 24 1
849 45 1
849 63 1
849 72 1
849 90 1
849 106 1
849 109 1
849 111 1
849 117 1
849 134 1
849 142 1
849 156 1
849 164 1
849 179 1
849 187 1
850 18 1
850 23 1
850 37 1
850 57 1
850 84 1
850 88 2
850 90 1
850 107 1
850 108 1
850 118 1
850 124 2
850 126 1
850 157 1
850 164 1
851 7 2
851 15 1
851 28 1
851 32 1
851 47 1
851 65 1
851 84 1
851 110 1
851 126 1
851 128 1
851 138 1
851 143 1
851 159 1
852 16 1
852 20 1
852 32 1
852 35 1
852 37 1
852 60 1
852 90 1
852 106 1
852 116 1
852 123 1
852 127 1
852 132 1
852 136 1
852 139 1
852 143 1
852 151 1
852 156 1
852 160 1
852 186 1
852 200 1
853 1 2
853 48 1
853 57 1
853 69 1
853 73 1
853 112 1
853 126 1
853 128 1
853 148 1
853 172 1
853 175 1
854 4 1
854 17 1
854 28 1
854 33 1
854 37 1
854 41 1
854 44 1
854 45 1
854 77 2
854 95 1
854 101 1
854 148 1
854 163 1
854 165 2
854 187 1
854 198 1
855 8 1
855 11 1
855 12 1
855 25 1
855 26 1
855 27 1
855 28 1
855 29 1
855 75 1
855 78 1
855 100 1
855 108 1
855 139 1
855 141 1
855 153 1
855 182 1
856 2 1
856 3 1
856 10 1
856 21 1
856 22 1
856 37 1
856 48 1
856 51 1
856 66 1
856 69 1
856 97 1
856 110 1
856 154 1
856 157 1
856 161 1
856 162 1
856 193 1
856 195 1
857 23 1
857 25 2
857 38 1
857 47 1
857 65 1
857 71 1
857 95 1
857 110 1
857 112 1
857 152 1
857 155 2
857 169 2
857 178 1
858 5 1
858 12 1
858 14 1
858 20 3
858 28 1
858 33 1
858 49 1
858 64 2
858 97 1
858 101 1
858 107 1
858 116 1
858 123 1
858 130 1
858 158 1
858 164 1
858 173 1
858 181 1
859 12 1
859 20 1
859 27 1
859 44 1
859 87 1
859 101 2
859 134 1
859 135 1
859 145 1
859 148 1
859 166 1
860 24 1
860 36 1
860 41 1
860 46 1
860 55 1
860 71 1
860 79 1
860 99 1
860 144 2
860 193 1
861 15 1
861 28 2
861 42 1
861 46 1
861 56 1
861 60 1
861 61 1
861 77 1
861 81 1
861 93 1
861 125 1
861 148 1
861 157 1
861 159 1
861 176 1
861 181 1
861 185 1
861 191 1
862 26 1
862 65 1
862 76 1
862 79 1
862 81 1
862 167 1
862 183 2
863 38 1
863 46 1
863 51 1
863 53 1
863 55 1
863 74 1
863 75 1
863 106 1
863 143 1
863 174 1
863 186 1
863 190 1
864 15 1
864 31 1
864 34 2
864 40 1
864 64 1
864 71 1
864 94 1
864 98 1
864 105 1
864 151 2
864 152 3
864 170 1
864 172 1
864 175 1
864 190 1
864 199 1
865 1 1
865 6 1
865 25 1
865 41 1
865 46 1
865 47 1
865 89 1
865 102 1
865 135 1
865 171 1
865 195 1
866 29 3
866 45 1
866 72 2
866 73 1
866 98 1
866 104 1
866 125 1
866 136 1
866 183 1
866 194 1
866 196 1
867 3 1
867 36 1
867 74 2
867 78 1
867 103 1
867 126 1
867 131 1
867 151 1
867 170 1
867 173 1
867 178 1
867 187 1
868 37 1
868 50 1
868 87 1
868 107 1
868 136 1
868 142 1
868 148 1
868 150 1
868 168 1
868 181 2
869 7 1
869 49 1
869 58 1
869 62 1
869 78 1
869 83 1
869 87 1
869 97 1
869 112 1
869 146 1
869 149 1
869 175 1
869 192 1
870 20 1
870 28 1
870 30 1
870 80 1
870 86 1
870 101 2
870 112 1
870 151 1
871 2 1
871 23 1
871 42 1
871 49 1
871 67 1
871 70 1
871 84 1
871 87 1
871 90 1
871 141 1
871 145 1
871 166 1
871 169 1
871 171 1
871 175 1
871 180 1
871 181 1
871 186 1
871 195 1
872 6 2
872 37 1
872 47 1
872 54 1
872 74 1
872 79 1
872 106 1
872 121 1
872 123 1
872 130 1
872 139 1
872 153 1
872 162 1
872 188 1
872 196 1
873 9 1
873 12 1
873 14 1
873 18 1
873 22 1
873 34 1
873 42 1
873 79 1
873 93 1
873 95 2
873 101 1
873 107 1
873 111 1
873 116 1
873 156 1
873 192 1
874 19 1
874 20 1
874 21 1
874 37 1
874 50 1
874 55 1
874 88 1
874 100 1
874 103 3
874 111 1
874 115 1
874 124 1
874 141 1
874 160 1
875 30 1
875 47 1
875 69 1
875 70 1
875 89 1
875 148 1
875 150 1
875 186 1
875 200 1
876 41 1
876 79 1
876 90 1
876 101 1
876 107 1
876 117 1
876 119 1
876 130 1
876 131 1
876 138 1
876 139 1
876 143 2
876 146 1
876 154 1
876 156 1
876 160 1
876 164 1
876 178 2
876 198 1
876 200 1
877 22 1
877 49 1
877 80 1
877 88 1
877 101 1
877 106 1
877 112 1
877 125 1
877 135 1
877 140 2
877 141 1
877 152 1
877 160 1
877 181 1
877 194 1
877 200 1
878 4 1
878 27 1
878 53 1
878 65 1
878 69 1
878 70 1
878 77 1
878 79 1
878 133 1
878 139 1
878 147 1
878 163 1
878 185 1
878 195 1
879 5 1
879 11 2
879 25 2
879 67 1
879 71 1
879 80 1
879 92 1
879 103 1
879 106 1
879 149 1
879 162 1
879 182 1
879 183 1
879 194 1
880 32 1
880 36 2
880 52 1
880 70 2
880 79 1
880 91 1
880 98 1
880 108 1
880 124 1
880 126 1
880 151 1
880 154 2
880 158 1
880 170 1
880 185 1
881 4 1
881 7 1
881 11 1
881 22 1
881 27 1
881 28 1
881 29 1
881 33 1
881 41 1
881 53 1
881 60 1
881 111 1
881 121 1
881 155 1
881 171 1
881 183 1
882 8 1
882 17 1
882 32 1
882 62 1
882 80 1
882 86 1
882 99 1
882 107 1
882 123 1
882 128 1
882 130 1
882 185 1
882 192 1
882 194 1
882 200 2
883 8 1
883 27 1
883 35 1
883 115 1
883 130 1
883 131 1
883 150 1
883 165 1
884 3 1
884 8 1
884 13 1
884 16 1
884 17 1
884 50 1
884 51 1
884 67 1
884 79 1
884 98 1
884 113 1
884 123 1
884 191 1
884 195 1
884 200 1
885 14 1
885 32 1
885 47 1
885 58 1
885 64 1
885 82 1
885 86 1
885 117 1
885 140 1
885 142 1
885 153 1
885 177 1
885 180 1
885 189 1
886 17 1
886 18 1
886 35 1
886 45 1
886 65 1
886 66 1
886 71 1
886 93 1
886 132 1
886 164 1
886 165 1
886 180 1
886 190 1
886 191 1
886 192 1
886 193 1
887 6 1
887 16 1
887 23 1
887 61 1
887 72 1
887 125 1
887 137 1
887 139 1
887 149 1
887 153 1
887 168 2
887 197 1
888 25 1
888 39 1
888 43 1
888 58 1
888 83 1
888 127 1
888 144 1
888 148 1
888 155 2
888 161 1
888 170 1
888 194 1
889 7 1
889 10 1
889 20 1
889 28 1
889 34 1
889 40 1
889 62 1
889 78 1
889 79 1
889 107 1
889 112 2
889 142 1
889 144 1
889 164 2
889 167 1
889 178 2
889 180 2
890 16 1
890 21 1
890 29 1
890 42 1
890 79 1
890 83 1
890 94 1
890 102 1
890 104 1
890 110 1
890 114 1
890 125 1
890 195 1
891 28 1
891 33 1
891 34 2
891 39 1
891 69 1
891 91 1
891 99 1
891 127 1
891 158 1
891 169 1
892 3 1
892 31 1
892 33 1
892 51 1
892 58 1
892 112 1
892 117 1
892 130 3
892 135 1
892 146 2
892 176 1
892 184 1
892 191 1
892 194 1
893 30 1
893 39 1
893 40 1
893 111 1
893 132 1
893 140 1
893 177 1
894 22 1
894 37 1
894 48 1
894 71 1
894 79 1
894 121 1
894 145 1
894 148 1
894 165 1
894 171 1
894 180 1
894 185 1
894 196 1
895 23 2
895 26 1
895 29 1
895 46 1
895 81 1
895 91 1
895 100 1
895 118 1
895 139 1
895 140 1
895 146 1
895 161 1
895 178 1
895 187 1
895 193 1
895 196 1
895 198 1
895 199 2
895 200 1
896 36 2
896 54 1
896 78 1
896 97 1
896 110 1
896 124 1
896 128 1
896 150 1
896 155 1
896 171 1
896 172 1
896 174 1
896 188 1
896 198 1
897 13 1
897 18 1
897 23 1
897 24 1
897 25 1
897 51 1
897 61 1
897 88 1
897 140 2
897 152 1
897 165 1
897 167 2
897 174 1
897 175 1
897 190 2
898 25 1
898 58 2
898 65 1
898 78 1
898 83 1
898 100 1
898 105 1
898 118 1
898 120 1
898 126 1
898 138 1
898 140 1
898 143 1
898 182 1
899 3 1
899 25 1
899 38 2
899 119 3
899 133 2
899 154 1
899 159 2
899 164 1
899 166 1
899 177 1
900 20 1
900 40 1
900 53 1
900 57 1
900 64 2
900 68 1
900 70 1
900 73 1
900 113 1
900 117 1
900 118 1
900 119 1
900 128 1
900 148 1
900 157 1
900 163 1
900 172 1
900 191 1
901 50 1
901 58 1
901 62 1
901 64 1
901 70 1
901 72 1
901 84 1
901 88 1
901 97 2
901 133 1
901 136 1
901 144 1
901 154 1
901 159 1
901 163 1
901 165 1
901 189 1
901 194 1
902 7 1
902 11 1
902 21 1
902 54 1
902 63 1
902 65 1
902 81 2
902 82 1
902 102 1
902 120 1
902 121 1
902 128 1
902 130 1
902 144 1
902 156 1
902 165 1
902 178 1
903 1 2
903 12 1
903 25 1
903 40 1
903 50 1
903 52 1
903 73 1
903 77 1
903 103 1
903 107 1
903 110 1
903 111 1
903 121 1
903 131 1
903 158 1
903 175 1
903 182 1
903 191 1
904 3 1
904 5 1
904 19 1
904 34 1
904 51 1
904 55 1
904 57 1
904 64 1
904 69 1
904 75 1
904 94 1
904 99 1
904 101 1
904 150 1
904 162 1
904 171 1
904 192 1
904 195 1
905 4 1
905 30 1
905 35 1
905 36 1
905 52 1
905 60 1
905 65 1
905 66 1
905 68 1
905 74 1
905 83 1
905 127 1
906 4 1
906 33 1
906 36 1
906 42 1
906 43 2
906 54 1
906 59 2
906 87 1
906 96 1
906 102 1
906 105 1
906 117 1
906 122 1
906 136 1
906 154 1
906 180 1
906 188 1
907 20 1
907 21 1
907 23 1
907 29 1
907 35 1
907 56 1
907 59 2
907 68 1
907 75 1
907 88 1
907 105 1
907 114 1
907 136 1
907 171 1
907 172 1
907 185 1
908 13 1
908 20 1
908 26 1
908 38 1
908 54 1
908 87 1
908 129 1
908 139 1
908 166 1
908 192 1
909 27 1
909 86 1
909 91 1
909 126 1
909 139 1
909 156 1
909 168 1
909 176 1
909 184 1
910 31 1
910 42 1
910 54 1
910 62 1
910 68 1
910 79 1
910 92 1
910 142 2
910 150 1
910 161 1
911 5 1
911 17 1
911 51 1
911 52 1
911 60 1
911 68 1
911 79 1
911 118 1
911 126 1
911 142 1
911 145 1
911 148 1
911 169 1
911 171 1
911 176 1
911 182 1
912 18 1
912 30 1
912 77 1
912 85 1
912 87 1
912 92 1
912 96 1
912 124 1
912 131 1
912 158 1
912 162 1
912 164 1
912 176 1
912 194 1
913 6 1
913 33 1
913 39 1
913 48 2
913 64 1
913 70 1
913 93 1
913 99 1
913 102 1
913 125 1
913 137 1
913 141 1
913 143 1
913 166 1
913 167 1
913 171 1
913 172 1
913 176 1
913 186 1
914 2 1
914 3 1
914 30 1
914 52 1
914 71 1
914 76 1
914 96 1
914 102 1
914 114 1
914 147 1
914 161 1
914 169 1
914 179 2
915 10 1
915 12 1
915 35 1
915 37 1
915 41 1
915 42 1
915 65 1
915 97 1
915 131 1
915 134 1
915 154 1
915 190 2
916 32 1
916 69 1
916 73 1
916 104 1
916 110 1
916 132 1
916 135 1
916 138 1
916 145 1
916 150 1
916 170 1
916 184 1
916 197 1
917 35 1
917 66 1
917 80 1
917 81 1
917 83 1
917 84 1
917 90 1
917 99 1
917 108 1
917 131 1
917 132 1
917 135 1
917 150 1
917 154 2
917 183 1
917 184 1
918 11 1
918 29 1
918 61 1
918 80 1
918 84 1
918 90 1
918 95 1
918 98 1
918 100 1
918 143 1
918 152 1
918 157 1
918 165 1
918 169 2
919 9 1
919 14 1
919 16 1
919 17 2
919 20 1
919 54 1
919 57 1
919 58 1
919 95 1
919 126 1
919 127 1
919 156 1
919 167 1
919 193 1
920 1 1
920 22 1
920 32 1
920 42 1
920 51 1
920 53 2
920 59 1
920 68 1
920 84 1
920 106 1
920 112 1
920 137 1
920 156 1
920 171 2
920 173 1
920 179 1
921 34 1
921 43 1
921 66 1
921 67 1
921 79 1
921 85 1
921 91 1
921 98 1
921 99 1
921 103 1
921 104 1
921 129 1
921 140 1
921 144 1
921 194 1
922 12 3
922 53 1
922 87 1
922 158 1
922 167 1
922 175 1
922 186 1
923 20 1
923 21 1
923 30 1
923 45 2
923 81 2
923 85 4
923 86 2
923 98 1
923 113 1
923 116 1
923 155 1
924 9 1
924 15 1
924 16 1
924 42 1
924 61 1
924 62 1
924 82 1
924 87 1
924 90 1
924 113 2
924 116 1
924 122 1
924 141 1
924 158 1
925 44 1
925 60 1
925 63 1
925 71 1
925 82 1
925 90 1
925 92 2
925 101 1
925 123 1
925 125 1
925 128 1
925 135 1
925 136 1
925 148 1
925 158 1
926 28 1
926 42 1
926 53 1
926 62 1
926 78 1
926 82 2
926 100 1
926 113 1
926 151 1
926 165 1
926 181 1
926 200 1
927 11 1
927 25 1
927 38 1
927 54 2
927 70 1
927 121 1
927 145 1
927 147 1
928 7 1
928 44 1
928 51 1
928 72 1
928 73 1
928 75 1
928 108 1
928 146 1
928 154 1
929 8 1
929 14 1
929 20 1
929 27 1
929 32 1
929 102 1
929 105 1
929 120 1
929 123 1
929 127 1
929 160 1
929 175 1
929 181 1
929 188 1
930 6 1
930 8 1
930 13 1
930 32 1
930 51 1
930 73 1
930 98 1
930 99 1
930 125 1
930 127 1
930 129 1
930 132 1
930 133 1
930 153 1
930 161 1
930 164 1
930 178 1
930 192 1
931 7 2
931 8 1
931 16 1
931 24 1
931 26 1
931 34 1
931 44 1
931 54 1
931 95 2
931 97 1
931 98 1
931 100 2
931 112 1
931 134 1
931 169 1
931 170 1
932 6 1
932 26 1
932 41 1
932 80 1
932 92 1
932 102 1
932 117 2
932 127 1
932 143 1
932 145 1
932 155 1
932 165 1
932 171 2
932 175 1
932 192 2
933 2 1
933 6 1
933 10 1
933 21 1
933 50 1
933 55 1
933 64 1
933 77 1
933 81 1
933 91 1
933 183 1
933 196 1
934 5 1
934 19 1
934 28 1
934 43 1
934 48 1
934 57 1
934 128 1
934 143 2
934 162 1
934 168 1
935 9 1
935 26 1
935 27 1
935 36 1
935 37 1
935 43 1
935 50 1
935 74 1
935 76 1
935 78 1
935 145 1
935 150 1
935 182 1
935 191 2
935 200 1
936 20 1
936 27 1
936 28 1
936 44 2
936 45 1
936 59 1
936 97 1
936 98 1
936 111 1
936 112 1
936 137 1
936 154 1
936 160 1
936 179 1
936 182 1
937 28 1
937 58 1
937 81 1
937 83 1
937 89 1
937 94 1
937 95 1
937 102 1
937 109 1
937 114 1
937 139 1
937 147 1
937 154 2
937 157 1
937 171 1
937 181 1
937 182 1
937 195 1
938 8 1
938 17 1
938 62 1
938 63 1
938 67 1
938 95 1
938 114 1
938 170 1
938 187 1
938 196 1
939 12 1
939 32 1
939 77 1
939 82 1
939 87 1
939 93 1
939 107 1
939 112 1
939 119 1
939 137 1
939 147 1
939 160 1
939 170 1
939 179 1
939 193 2
940 1 1
940 26 1
940 45 1
940 67 1
940 113 1
940 154 2
940 189 1
940 190 1
941 19 1
941 21 2
941 26 1
941 35 1
941 61 1
941 63 1
941 68 1
941 72 1
941 91 1
941 103 1
941 133 1
941 139 1
941 146 1
941 182 1
941 187 1
941 195 1
942 13 1
942 23 1
942 24 1
942 39 1
942 41 1
942 85 1
942 143 1
942 146 1
942 196 2
943 18 1
943 19 1
943 79 1
943 95 1
943 101 1
943 114 1
943 136 1
943 142 1
943 153 1
943 156 1
943 175 1
943 187 1
944 5 1
944 10 1
944 17 1
944 39 1
944 41 1
944 43 1
944 61 1
944 69 1
944 84 2
944 86 1
944 103 1
944 114 1
944 141 1
944 144 1
944 172 2
944 174 1
944 190 1
944 196 1
944 197 1
944 200 1
945 17 1
945 21 1
945 23 1
945 39 1
945 42 1
945 45 1
945 58 1
945 79 1
945 82 1
945 90 1
945 99 1
945 122 1
945 128 1
945 129 1
945 130 1
945 147 1
945 148 1
945 152 1
945 164 1
945 173 1
945 179 1
945 189 1
945 193 1
945 198 1
945 199 1
946 4 1
946 9 1
946 69 1
946 77 1
946 115 1
946 117 1
946 118 1
946 125 1
946 128 1
946 149 1
946 167 1
946 173 1
946 180 1
946 182 1
947 1 1
947 10 1
947 12 1
947 57 2
947 73 1
947 92 1
947 94 1
947 110 1
947 130 1
947 147 1
947 192 1
947 193 1
947 199 1
948 19 1
948 22 1
948 50 1
948 51 1
948 52 1
948 53 1
948 59 1
948 65 1
948 69 1
948 86 1
948 99 2
948 130 1
948 159 1
948 173 1
948 175 1
949 5 1
949 41 2
949 54 1
949 58 1
949 79 1
949 121 1
949 134 1
949 163 2
949 166 1
949 176 1
949 182 1
949 185 1
949 188 1
949 190 2
950 1 1
950 31 1
950 43 1
950 55 1
950 61 1
950 64 1
950 69 1
950 89 1
950 104 1
950 117 1
950 124 1
950 136 1
950 141 1
950 153 2
950 156 2
950 197 1
951 29 1
951 33 1
951 34 1
951 43 1
951 103 1
951 137 1
951 160 2
951 178 1
952 16 1
952 19 1
952 28 1
952 35 1
952 61 1
952 72 1
952 110 1
952 157 1
952 177 1
952 196 1
953 23 1
953 33 1
953 39 1
953 97 1
953 111 1
953 123 1
953 153 1
953 169 1
953 175 1
953 188 1
953 200 1
954 13 1
954 30 2
954 40 1
954 57 1
954 85 1
954 93 1
954 104 1
954 108 1
954 113 1
954 125 1
954 130 1
954 161 1
954 164 1
954 171 1
954 189 1
955 7 1
955 11 1
955 14 1
955 31 1
955 35 1
955 59 1
955 67 1
955 73 1
955 110 1
955 124 1
955 140 1
955 145 1
955 147 1
955 149 1
955 153 1
955 179 1
956 6 1
956 11 1
956 40 1
956 46 1
956 50 1
956 60 1
956 63 1
956 88 1
956 105 1
956 111 1
956 117 1
956 126 2
956 150 1
956 158 1
956 164 1
956 198 1
956 200 1
957 11 1
957 29 1
957 49 1
957 50 1
957 61 1
957 83 1
957 105 1
957 135 1
957 141 1
957 155 1
957 180 2
958 2 1
958 12 1
958 44 1
958 116 1
958 123 1
958 127 1
958 134 1
958 156 1
958 157 1
958 175 1
958 180 1
958 191 1
958 199 1
959 5 1
959 10 1
959 29 1
959 58 1
959 61 1
959 78 2
959 116 1
959 140 1
959 148 1
959 149 1
959 150 1
959 190 1
959 196 1
960 14 1
960 16 1
960 31 1
960 46 1
960 47 1
960 50 1
960 62 1
960 77 1
960 88 1
960 105 2
960 123 1
960 135 1
960 145 1
960 148 1
960 171 1
960 192 1
960 195 1
961 1 1
961 12 1
961 21 1
961 25 1
961 28 1
961 68 1
961 73 1
961 74 1
961 149 1
961 153 2
961 157 1
961 177 1
961 181 1
961 182 1
962 3 1
962 7 1
962 24 1
962 27 1
962 37 1
962 42 1
962 50 1
962 59 1
962 61 1
962 64 1
962 66 1
962 71 1
962 133 1
962 140 1
962 149 1
962 162 1
962 169 1
962 193 1
962 199 1
962 200 1
963 9 2
963 16 1
963 20 1
963 22 1
963 34 2
963 49 1
963 85 1
963 86 1
963 105 1
963 113 1
963 115 1
963 125 1
963 132 1
963 142 2
963 171 1
963 179 1
963 192 1
963 200 1
964 21 1
964 28 1
964 34 1
964 35 2
964 85 1
964 104 2
964 110 1
964 123 1
964 149 1
964 150 1
964 171 1
964 175 1
964 191 1
964 200 1
965 32 1
965 36 1
965 61 1
965 71 1
965 82 1
965 84 1
965 122 1
965 137 1
965 139 1
965 149 1
965 176 1
965 177 1
966 8 1
966 131 2
966 139 1
966 153 1
966 162 1
966 180 1
966 193 1
966 199 2
967 2 1
967 30 1
967 62 1
967 79 1
967 82 1
967 89 1
967 90 1
967 97 1
967 101 1
967 102 1
967 157 2
967 172 1
968 2 1
968 9 1
968 31 1
968 37 2
968 51 1
968 52 1
968 63 1
968 85 1
968 105 1
968 127 1
968 149 1
968 166 1
968 169 1
968 179 1
968 189 1
968 194 1
968 197 1
969 11 1
969 19 2
969 39 1
969 44 1
969 56 1
969 81 1
969 134 1
969 161 1
969 197 1
970 21 1
970 25 1
970 29 1
970 50 1
970 58 2
970 69 1
970 105 1
970 116 1
970 118 1
970 125 1
970 126 1
970 136 1
970 138 2
970 142 1
970 149 1
970 158 1
970 160 1
970 164 1
970 175 1
970 181 1
971 20 1
971 34 1
971 66 1
971 86 1
971 87 1
971 101 2
971 110 1
971 118 1
971 135 1
971 139 1
971 149 1
971 171 1
972 10 1
972 19 1
972 32 1
972 37 1
972 40 1
972 94 1
972 99 1
972 108 1
972 115 1
972 126 1
972 145 1
972 166 1
972 168 1
972 171 1
972 189 1
972 193 1
972 194 1
973 7 1
973 11 1
973 48 1
973 83 1
973 97 1
973 107 1
973 111 1
973 113 1
973 130 1
973 150 1
973 158 1
973 193 1
974 1 1
974 2 1
974 12 1
974 28 1
974 33 1
974 36 1
974 52 1
974 65 1
974 99 2
974 125 2
974 173 1
974 182 1
974 188 1
975 16 1
975 39 1
975 63 2
975 92 1
975 93 1
975 102 1
975 103 2
975 122 1
975 127 1
975 146 1
975 147 1
975 151 1
975 167 1
975 179 1
975 183 1
975 187 1
975 192 1
976 17 1
976 39 1
976 59 1
976 64 1
976 69 1
976 71 1
976 77 1
976 90 1
976 92 1
976 116 1
976 120 1
976 162 1
976 163 1
976 167 1
976 168 1
976 185 1
977 1 1
977 3 1
977 6 1
977 49 1
977 112 1
977 122 1
977 124 1
977 129 1
977 130 1
977 161 1
977 163 1
977 188 1
977 192 3
977 194 1
978 15 1
978 20 1
978 32 1
978 47 1
978 54 1
978 64 1
978 97 1
978 113 2
978 122 1
978 142 1
978 153 1
978 167 1
978 169 1
979 25 1
979 33 1
979 57 1
979 77 1
979 84 1
979 108 1
979 113 1
979 139 1
979 152 1
979 169 1
979 179 1
980 7 1
980 10 1
980 14 1
980 28 1
980 39 1
980 43 1
980 47 1
980 61 1
980 62 1
980 72 1
980 77 1
980 86 1
980 116 1
980 127 1
980 129 1
980 158 2
980 175 1
980 176 1
980 188 1
981 19 1
981 28 1
981 33 1
981 35 1
981 37 1
981 43 1
981 44 1
981 51 3
981 97 1
981 134 1
981 160 1
981 200 1
982 5 1
982 32 1
982 38 1
982 67 1
982 94 1
982 100 2
982 107 1
982 148 1
982 169 1
983 38 1
983 41 1
983 42 1
983 43 1
983 52 1
983 55 1
983 59 2
983 69 1
983 72 1
983 75 1
983 93 1
983 95 1
983 105 1
983 108 1
983 121 1
983 137 1
983 157 1
983 163 1
983 174 1
983 200 1
984 17 1
984 36 1
984 56 1
984 71 1
984 90 1
984 93 1
984 97 1
984 100 1
984 129 1
984 169 1
984 175 1
984 198 1
985 5 1
985 41 1
985 44 1
985 64 1
985 67 1
985 93 1
985 96 1
985 102 1
985 112 1
985 118 1
985 121 1
985 125 1
985 127 1
985 147 1
985 150 1
985 161 1
985 162 1
985 196 1
985 197 1
986 14 1
986 25 1
986 53 1
986 112 1
986 116 1
986 118 1
986 141 1
987 3 1
987 14 1
987 36 1
987 52 1
987 66 1
987 67 1
987 74 1
987 79 1
987 122 2
987 144 1
987 146 1
987 153 1
987 155 1
987 166 1
987 182 1
987 186 1
987 192 1
988 27 1
988 28 1
988 58 1
988 68 1
988 77 1
988 80 1
988 92 1
988 113 1
988 119 1
988 132 1
988 138 1
988 152 1
988 154 1
988 169 1
988 188 1
988 193 1
988 195 1
989 17 1
989 23 1
989 29 1
989 47 1
989 52 1
989 61 1
989 67 2
989 69 1
989 103 1
989 107 1
989 113 1
989 159 1
989 160 2
989 161 1
989 168 1
989 198 1
990 1 1
990 33 1
990 48 1
990 81 1
990 99 1
990 126 1
990 137 1
990 138 1
990 141 1
990 149 1
990 175 1
991 29 1
991 31 2
991 34 1
991 96 1
991 98 1
991 125 1
991 134 1
991 136 1
991 138 1
991 146 1
991 166 1
991 191 1
991 194 1
991 196 1
992 7 1
992 15 1
992 25 2
992 47 1
992 52 1
992 56 1
992 80 1
992 86 1
992 106 1
992 123 1
992 140 1
992 143 1
992 174 1
992 175 1
992 188 1
992 194 1
992 199 1
993 10 1
993 15 1
993 40 1
993 64 1
993 65 1
993 76 1
993 85 1
993 88 1
993 101 1
993 122 1
993 161 1
993 173 1
993 176 1
993 189 1
993 194 1
994 5 1
994 38 1
994 40 1
994 100 1
994 116 1
994 118 1
994 121 1
994 148 1
994 154 1
994 184 1
994 189 1
994 198 1
995 5 1
995 46 1
995 59 1
995 60 1
995 62 1
995 83 1
995 85 3
995 96 1
995 111 1
995 134 1
995 136 1
995 173 1
995 196 1
996 1 1
996 6 1
996 7 1
996 12 1
996 50 1
996 54 2
996 59 1
996 74 1
996 83 1
996 93 1
996 99 1
996 112 1
996 119 1
996 161 1
996 187 1
997 10 1
997 18 1
997 26 1
997 28 1
997 50 1
997 80 1
997 93 1
997 97 1
997 114 1
997 144 1
997 190 2
997 196 1
998 29 1
998 34 1
998 66 1
998 87 1
998 89 1
998 92 2
998 93 1
998 104 1
998 126 2
998 133 1
998 185 1
998 189 1
998 200 1
999 6 1
999 37 2
999 39 1
999 41 1
999 50 1
999 53 2
999 55 1
999 64 1
999 73 1
999 93 1
999 95 1
999 116 1
999 124 1
999 125 1
999 126 1
999 166 1
999 180 1
999 192 1
1000 3 1
1000 5 1
1000 24 1
1000 44 1
1000 52 1
1000 74 1
1000 84 1
1000 92 1
1000 113 1
1000 125 1
1000 143 1
1000 179 1
1000 189 1
1000 198 1
