%%MatrixMarket matrix coordinate integer general
%
1000	100	14066
1 1 12
1 2 7
1 3 2
1 4 1
1 12 8
1 14 10
1 15 9
1 19 4
1 24 11
1 26 7
1 27 7
1 28 7
1 29 11
1 31 6
1 32 7
1 36 1
1 37 1
1 39 8
1 41 1
1 46 5
1 48 1
1 49 7
1 50 1
1 52 17
1 54 9
1 56 1
1 57 6
1 59 9
1 60 8
1 62 9
1 64 9
1 65 1
1 66 8
1 68 6
1 69 2
1 74 1
1 75 4
1 76 5
1 79 5
1 80 1
1 82 2
1 83 13
1 85 6
1 88 4
1 89 13
1 90 6
1 91 7
1 92 4
1 93 2
1 97 9
1 99 5
1 100 7
2 1 8
2 2 3
2 3 7
2 7 1
2 12 6
2 14 8
2 15 5
2 19 7
2 24 7
2 26 7
2 27 11
2 28 4
2 29 5
2 31 6
2 32 8
2 39 8
2 40 1
2 45 1
2 46 9
2 47 1
2 49 12
2 52 14
2 54 6
2 55 1
2 57 5
2 59 8
2 60 4
2 62 7
2 63 3
2 64 8
2 66 7
2 68 11
2 69 16
2 75 9
2 76 8
2 79 8
2 82 1
2 83 12
2 85 8
2 87 1
2 88 12
2 89 8
2 90 3
2 91 6
2 92 6
2 93 10
2 94 3
2 97 7
2 99 9
2 100 5
3 1 7
3 2 4
3 3 6
3 9 1
3 10 1
3 12 6
3 14 7
3 15 9
3 19 3
3 24 13
3 26 14
3 27 7
3 28 7
3 29 9
3 31 12
3 32 12
3 36 1
3 37 1
3 39 6
3 42 3
3 43 1
3 45 1
3 46 14
3 48 1
3 49 6
3 51 1
3 52 3
3 53 1
3 54 6
3 57 12
3 59 7
3 60 14
3 62 10
3 64 9
3 66 7
3 68 7
3 69 8
3 75 8
3 76 9
3 79 13
3 83 7
3 85 6
3 88 9
3 89 9
3 90 8
3 91 12
3 92 13
3 93 8
3 96 1
3 97 9
3 99 7
3 100 11
4 1 10
4 2 10
4 3 11
4 5 1
4 7 1
4 11 1
4 12 5
4 14 9
4 15 8
4 19 8
4 23 1
4 24 5
4 26 9
4 27 9
4 28 10
4 29 7
4 31 8
4 32 9
4 36 1
4 37 1
4 39 7
4 41 1
4 46 8
4 49 6
4 52 8
4 54 10
4 55 1
4 57 4
4 59 10
4 60 8
4 62 7
4 64 13
4 66 10
4 67 1
4 68 12
4 69 12
4 73 1
4 74 1
4 75 9
4 76 4
4 77 1
4 79 12
4 83 7
4 85 9
4 87 1
4 88 6
4 89 6
4 90 6
4 91 7
4 92 9
4 93 9
4 97 8
4 99 9
4 100 10
5 1 7
5 2 14
5 3 10
5 5 1
5 6 1
5 8 1
5 10 1
5 12 4
5 14 15
5 15 4
5 16 1
5 17 1
5 19 10
5 22 1
5 24 3
5 26 11
5 27 12
5 28 9
5 29 3
5 30 1
5 31 7
5 32 6
5 34 1
5 37 1
5 39 6
5 46 7
5 49 6
5 50 1
5 52 8
5 54 10
5 57 7
5 58 2
5 59 7
5 60 15
5 62 10
5 64 10
5 65 1
5 66 13
5 68 9
5 69 4
5 70 1
5 73 1
5 75 8
5 76 9
5 79 10
5 83 6
5 85 3
5 88 6
5 89 10
5 90 8
5 91 7
5 92 12
5 93 5
5 95 1
5 97 9
5 98 1
5 99 7
5 100 7
6 1 6
6 2 12
6 3 11
6 11 1
6 12 2
6 13 1
6 14 1
6 15 6
6 18 1
6 19 7
6 21 2
6 24 13
6 26 8
6 27 4
6 28 9
6 29 7
6 31 6
6 32 15
6 36 1
6 39 2
6 46 7
6 49 6
6 52 9
6 54 4
6 57 4
6 59 8
6 60 5
6 61 1
6 62 3
6 64 3
6 66 16
6 68 6
6 69 9
6 71 1
6 75 15
6 76 7
6 79 6
6 81 1
6 82 1
6 83 11
6 85 8
6 88 6
6 89 7
6 90 11
6 91 12
6 92 6
6 93 5
6 95 2
6 97 5
6 99 11
6 100 11
7 5 12
7 6 2
7 8 5
7 13 8
7 14 2
7 15 1
7 17 6
7 18 6
7 20 9
7 21 1
7 23 8
7 25 11
7 27 2
7 29 1
7 30 1
7 31 2
7 33 7
7 34 12
7 35 1
7 36 6
7 37 5
7 43 9
7 44 1
7 45 6
7 47 1
7 50 9
7 51 14
7 52 4
7 55 8
7 56 10
7 61 11
7 63 7
7 65 1
7 70 11
7 72 9
7 73 10
7 75 1
7 77 6
7 80 9
7 81 5
7 84 2
7 87 9
7 94 9
7 96 3
7 97 1
7 98 1
7 99 1
8 1 2
8 3 1
8 5 11
8 6 1
8 8 13
8 11 1
8 13 9
8 15 1
8 17 6
8 18 10
8 20 10
8 23 6
8 24 2
8 25 10
8 33 11
8 34 12
8 36 11
8 37 9
8 43 5
8 44 1
8 45 7
8 46 1
8 47 1
8 49 1
8 50 10
8 51 9
8 55 10
8 56 12
8 57 1
8 59 1
8 60 1
8 61 12
8 63 8
8 64 1
8 68 1
8 70 10
8 72 11
8 73 5
8 74 1
8 76 1
8 77 15
8 80 9
8 81 19
8 86 2
8 87 8
8 92 1
8 94 3
8 96 11
8 99 1
8 100 1
9 5 6
9 6 12
9 8 7
9 9 1
9 11 1
9 13 7
9 14 1
9 16 1
9 17 16
9 18 6
9 20 8
9 23 8
9 25 7
9 27 1
9 33 5
9 34 8
9 36 7
9 37 7
9 38 1
9 39 1
9 41 1
9 43 13
9 44 1
9 45 7
9 47 1
9 50 7
9 51 5
9 55 5
9 56 10
9 61 6
9 63 7
9 64 1
9 65 1
9 66 2
9 67 3
9 70 5
9 71 1
9 72 3
9 73 6
9 77 10
9 80 6
9 81 6
9 83 1
9 85 1
9 86 1
9 87 7
9 88 1
9 94 2
9 96 6
9 99 1
10 1 1
10 2 1
10 3 1
10 5 10
10 6 7
10 8 4
10 11 1
10 13 5
10 15 2
10 17 11
10 18 12
10 20 10
10 22 1
10 23 8
10 25 10
10 33 5
10 34 10
10 36 10
10 37 4
10 39 1
10 43 10
10 45 8
10 50 6
10 51 6
10 55 10
10 56 9
10 58 1
10 60 1
10 61 6
10 63 8
10 65 1
10 66 1
10 70 8
10 72 12
10 73 13
10 76 2
10 77 8
10 80 8
10 81 6
10 87 10
10 93 1
10 94 9
10 96 8
10 98 2
11 4 1
11 5 6
11 6 2
11 7 1
11 8 3
11 9 1
11 13 9
11 17 8
11 18 7
11 19 1
11 20 8
11 23 7
11 24 1
11 25 6
11 27 1
11 32 1
11 33 11
11 34 7
11 35 1
11 36 9
11 37 12
11 39 1
11 43 6
11 44 1
11 45 7
11 49 1
11 50 5
11 51 6
11 55 10
11 56 6
11 59 1
11 61 6
11 63 14
11 66 2
11 70 7
11 72 12
11 73 7
11 77 13
11 79 1
11 80 6
11 81 7
11 86 1
11 87 11
11 88 1
11 91 1
11 93 1
11 94 5
11 96 5
11 100 1
12 1 1
12 4 1
12 5 11
12 6 5
12 8 5
12 13 5
12 17 7
12 18 8
12 20 6
12 22 1
12 23 3
12 24 1
12 25 7
12 26 1
12 28 1
12 33 6
12 34 11
12 36 9
12 37 15
12 38 1
12 43 8
12 45 11
12 50 6
12 51 5
12 55 12
12 56 7
12 58 2
12 59 1
12 60 1
12 61 9
12 63 6
12 64 1
12 70 9
12 72 9
12 73 11
12 77 3
12 80 9
12 81 9
12 85 1
12 87 7
12 94 12
12 96 7
13 2 1
13 4 7
13 7 5
13 9 7
13 11 6
13 13 1
13 16 4
13 19 1
13 20 1
13 21 1
13 22 5
13 26 1
13 27 1
13 30 9
13 35 12
13 38 11
13 42 1
13 44 6
13 46 1
13 47 3
13 48 14
13 53 9
13 58 4
13 65 4
13 67 9
13 68 1
13 71 6
13 81 1
13 82 12
13 83 1
13 84 6
13 85 1
13 86 8
13 88 1
13 89 1
13 90 1
13 92 1
13 93 1
13 95 13
13 98 12
13 99 1
13 100 1
14 4 4
14 6 1
14 7 12
14 9 3
14 11 7
14 16 8
14 17 2
14 21 1
14 22 6
14 27 1
14 30 9
14 35 7
14 38 9
14 44 7
14 46 1
14 47 11
14 48 5
14 53 11
14 55 1
14 58 10
14 63 1
14 65 7
14 67 12
14 68 1
14 71 10
14 76 1
14 82 13
14 84 7
14 86 12
14 88 1
14 91 2
14 94 1
14 95 12
14 98 12
14 99 1
14 100 1
15 1 1
15 2 1
15 4 8
15 7 7
15 9 9
15 11 7
15 16 9
15 20 1
15 21 1
15 22 5
15 26 1
15 27 1
15 29 1
15 30 8
15 34 1
15 35 9
15 36 1
15 38 7
15 44 8
15 47 7
15 48 10
15 49 1
15 50 1
15 53 8
15 58 11
15 59 1
15 61 1
15 65 11
15 67 5
15 70 1
15 71 10
15 76 1
15 77 1
15 82 10
15 84 8
15 86 8
15 87 1
15 88 1
15 92 1
15 95 5
15 98 5
16 2 1
16 3 1
16 4 9
16 6 1
16 7 11
16 9 9
16 11 8
16 12 1
16 13 1
16 15 1
16 16 9
16 19 1
16 22 7
16 29 1
16 30 12
16 33 1
16 35 7
16 38 8
16 44 12
16 45 1
16 47 9
16 48 5
16 53 7
16 58 10
16 61 1
16 65 6
16 67 7
16 68 2
16 71 6
16 74 1
16 82 5
16 84 7
16 86 14
16 87 1
16 93 1
16 95 6
16 98 6
17 2 2
17 4 8
17 7 8
17 9 10
17 11 4
17 13 1
17 15 1
17 16 4
17 21 1
17 22 12
17 28 2
17 29 4
17 30 8
17 34 1
17 35 9
17 38 7
17 41 1
17 44 3
17 45 1
17 47 6
17 48 3
17 49 1
17 50 1
17 53 9
17 54 2
17 55 1
17 58 17
17 62 1
17 65 7
17 66 3
17 67 5
17 69 1
17 71 12
17 76 1
17 82 9
17 84 8
17 86 10
17 93 1
17 95 6
17 98 7
17 100 2
18 2 1
18 4 9
18 5 1
18 7 4
18 9 6
18 10 1
18 11 4
18 15 1
18 16 12
18 21 1
18 22 7
18 26 1
18 29 2
18 30 2
18 32 1
18 35 16
18 38 4
18 42 2
18 44 7
18 47 6
18 48 5
18 53 5
18 54 1
18 58 5
18 59 1
18 63 1
18 65 13
18 66 1
18 67 12
18 69 1
18 71 10
18 80 1
18 82 10
18 83 1
18 84 3
18 86 5
18 89 1
18 93 2
18 95 3
18 97 2
18 98 4
18 100 1
19 3 2
19 7 1
19 10 7
19 11 1
19 20 1
19 21 4
19 24 1
19 27 1
19 29 2
19 40 15
19 41 6
19 42 16
19 49 1
19 50 1
19 54 2
19 57 1
19 63 1
19 65 1
19 66 1
19 74 9
19 75 2
19 76 1
19 78 7
19 83 1
19 87 2
19 88 1
19 89 1
19 90 1
19 91 1
19 94 1
19 96 1
19 100 1
20 7 1
20 10 9
20 13 1
20 15 1
20 21 10
20 23 1
20 36 1
20 40 15
20 41 12
20 42 4
20 50 1
20 51 1
20 52 1
20 54 1
20 59 1
20 61 1
20 62 1
20 65 1
20 66 1
20 67 1
20 70 2
20 74 8
20 78 10
20 92 1
21 7 1
21 9 1
21 10 8
21 11 1
21 20 1
21 21 3
21 33 2
21 40 12
21 41 6
21 42 7
21 49 1
21 54 1
21 56 1
21 66 1
21 67 1
21 72 1
21 74 3
21 78 8
21 86 1
21 90 1
21 94 2
21 95 3
22 7 1
22 10 7
22 12 2
22 14 1
22 15 1
22 19 1
22 21 7
22 22 1
22 29 1
22 32 2
22 33 1
22 34 1
22 36 1
22 38 2
22 40 8
22 41 1
22 42 5
22 46 1
22 47 2
22 51 1
22 60 1
22 62 1
22 63 1
22 68 1
22 69 1
22 70 1
22 74 8
22 75 1
22 78 6
22 92 1
22 93 1
22 97 1
23 1 1
23 2 1
23 5 2
23 10 11
23 19 1
23 21 3
23 26 1
23 36 1
23 37 1
23 40 5
23 41 9
23 42 7
23 54 1
23 72 1
23 73 1
23 74 5
23 78 10
23 82 2
23 84 2
23 89 1
23 96 1
23 98 2
23 99 1
24 10 10
24 15 1
24 18 1
24 21 9
24 23 1
24 28 1
24 29 1
24 33 1
24 40 12
24 41 7
24 42 6
24 44 1
24 46 3
24 49 1
24 50 1
24 53 1
24 55 1
24 59 1
24 60 2
24 66 2
24 68 1
24 69 1
24 74 12
24 78 11
24 80 2
24 84 1
24 98 1
25 1 3
25 2 6
25 3 4
25 4 10
25 5 3
25 6 8
25 7 13
25 8 4
25 9 6
25 10 10
25 11 8
25 12 2
25 13 5
25 14 5
25 15 12
25 16 7
25 17 10
25 18 5
25 19 6
25 20 8
25 21 7
25 22 5
25 23 4
25 24 5
25 25 10
25 26 9
25 27 8
25 28 10
25 29 6
25 30 4
25 31 6
25 32 10
25 33 6
25 34 4
25 35 4
25 36 7
25 37 3
25 38 6
25 39 12
25 40 8
25 41 9
25 42 5
25 43 11
25 44 3
25 45 9
25 46 7
25 47 4
25 48 10
25 49 8
25 50 5
25 51 6
25 52 6
25 53 3
25 54 13
25 55 5
25 56 7
25 57 9
25 58 7
25 59 10
25 60 11
25 61 4
25 62 5
25 63 6
25 64 4
25 65 6
25 66 9
25 67 4
25 68 2
25 69 12
25 70 6
25 71 5
25 72 7
25 73 2
25 74 13
25 75 10
25 76 7
25 77 10
25 78 10
25 79 5
25 80 6
25 81 10
25 82 7
25 83 6
25 84 4
25 85 6
25 86 7
25 87 4
25 88 4
25 89 12
25 90 5
25 91 3
25 92 6
25 93 8
25 94 6
25 95 2
25 96 7
25 97 6
25 98 4
25 99 6
25 100 6
26 1 1
26 2 7
26 3 5
26 4 5
26 5 5
26 6 5
26 7 6
26 8 9
26 9 4
26 10 6
26 11 7
26 12 5
26 13 4
26 14 8
26 15 7
26 16 1
26 17 4
26 18 4
26 19 8
26 20 4
26 21 10
26 22 5
26 23 7
26 24 5
26 25 4
26 26 6
26 27 6
26 28 4
26 29 3
26 30 5
26 31 6
26 32 6
26 33 8
26 34 4
26 35 5
26 36 7
26 37 5
26 38 13
26 39 2
26 40 2
26 41 8
26 42 14
26 43 7
26 44 5
26 45 3
26 46 5
26 47 4
26 48 7
26 49 4
26 50 6
26 51 5
26 52 11
26 53 7
26 54 5
26 55 6
26 56 8
26 57 2
26 58 6
26 59 3
26 60 2
26 61 4
26 62 8
26 63 6
26 64 8
26 65 5
26 66 6
26 67 6
26 68 6
26 69 6
26 70 7
26 71 8
26 72 8
26 73 11
26 74 5
26 75 4
26 76 6
26 77 2
26 78 7
26 79 6
26 80 4
26 81 7
26 82 5
26 83 3
26 84 9
26 85 4
26 86 4
26 87 4
26 88 7
26 89 6
26 90 2
26 91 2
26 92 9
26 93 5
26 94 4
26 95 7
26 96 7
26 97 4
26 98 4
26 99 5
26 100 13
27 1 6
27 2 14
27 3 5
27 4 9
27 5 6
27 6 7
27 7 5
27 8 4
27 9 12
27 10 4
27 11 4
27 12 3
27 13 8
27 14 12
27 15 5
27 16 5
27 17 9
27 18 2
27 19 5
27 20 8
27 21 7
27 22 3
27 23 6
27 24 3
27 25 9
27 26 6
27 27 9
27 28 4
27 29 9
27 30 4
27 31 10
27 32 8
27 33 3
27 34 9
27 35 6
27 36 3
27 37 8
27 38 7
27 39 7
27 40 6
27 41 7
27 42 11
27 43 4
27 44 5
27 45 5
27 46 6
27 47 10
27 48 7
27 49 5
27 50 7
27 51 4
27 52 4
27 53 2
27 54 11
27 55 6
27 56 8
27 57 4
27 58 11
27 59 2
27 60 4
27 61 6
27 62 4
27 63 5
27 64 3
27 65 7
27 66 7
27 67 6
27 68 8
27 69 8
27 70 13
27 71 3
27 72 5
27 73 4
27 74 5
27 75 7
27 76 8
27 77 4
27 78 6
27 79 5
27 80 8
27 81 7
27 82 6
27 83 6
27 84 4
27 85 4
27 86 5
27 87 5
27 88 11
27 89 6
27 90 6
27 91 7
27 92 4
27 93 5
27 94 3
27 95 5
27 96 6
27 97 5
27 98 6
27 99 7
27 100 3
28 1 4
28 2 5
28 3 6
28 4 8
28 5 4
28 6 5
28 7 2
28 8 7
28 9 10
28 10 10
28 11 7
28 12 9
28 13 4
28 14 2
28 15 4
28 16 10
28 17 5
28 18 3
28 19 8
28 20 4
28 21 6
28 22 3
28 23 3
28 24 6
28 25 9
28 26 4
28 27 7
28 28 3
28 29 5
28 30 9
28 31 7
28 32 2
28 33 6
28 34 3
28 35 5
28 36 8
28 37 6
28 38 5
28 39 5
28 40 7
28 41 10
28 42 3
28 43 5
28 44 7
28 45 6
28 46 8
28 47 6
28 48 5
28 49 5
28 50 5
28 51 4
28 52 6
28 53 5
28 54 4
28 55 6
28 56 6
28 57 7
28 58 5
28 59 7
28 60 7
28 61 3
28 62 4
28 63 9
28 64 13
28 65 6
28 66 5
28 67 8
28 68 5
28 69 7
28 70 2
28 71 6
28 72 8
28 73 8
28 74 4
28 75 6
28 76 9
28 77 9
28 78 6
28 79 4
28 80 6
28 81 8
28 82 9
28 83 7
28 84 8
28 85 4
28 86 6
28 87 4
28 88 10
28 89 6
28 90 8
28 91 5
28 92 7
28 93 6
28 94 5
28 95 3
28 96 7
28 97 7
28 98 1
28 99 5
28 100 12
29 1 6
29 2 2
29 3 3
29 4 9
29 5 4
29 6 4
29 7 4
29 8 7
29 9 4
29 10 9
29 11 8
29 12 4
29 13 10
29 15 2
29 16 11
29 17 7
29 18 8
29 19 5
29 20 5
29 21 6
29 22 1
29 23 3
29 24 7
29 25 3
29 26 10
29 27 6
29 28 8
29 29 8
29 30 6
29 31 7
29 32 5
29 33 4
29 34 6
29 35 4
29 36 3
29 37 3
29 38 5
29 39 6
29 40 5
29 41 2
29 42 1
29 43 4
29 44 4
29 45 10
29 46 7
29 47 8
29 48 2
29 49 4
29 50 4
29 51 10
29 52 8
29 53 6
29 54 9
29 55 7
29 56 3
29 57 3
29 58 7
29 59 3
29 60 5
29 61 5
29 62 9
29 63 5
29 64 6
29 65 7
29 66 7
29 67 4
29 68 6
29 69 6
29 70 8
29 71 9
29 72 4
29 73 8
29 74 5
29 75 10
29 76 2
29 77 6
29 78 3
29 79 2
29 80 3
29 81 8
29 82 5
29 83 5
29 84 8
29 85 3
29 86 8
29 87 7
29 88 3
29 89 3
29 90 2
29 91 3
29 92 3
29 93 8
29 94 7
29 95 4
29 96 7
29 97 4
29 98 7
29 99 8
29 100 3
30 1 8
30 2 5
30 3 12
30 4 7
30 5 7
30 6 3
30 7 6
30 8 9
30 9 11
30 10 4
30 11 7
30 12 5
30 13 2
30 14 8
30 15 5
30 16 6
30 17 4
30 18 13
30 19 9
30 20 2
30 21 14
30 22 7
30 23 11
30 24 7
30 25 6
30 26 7
30 27 8
30 28 7
30 29 5
30 30 7
30 31 8
30 32 3
30 33 8
30 34 6
30 35 7
30 36 3
30 37 12
30 38 13
30 39 5
30 40 2
30 41 8
30 42 10
30 43 8
30 44 2
30 45 11
30 46 4
30 47 3
30 48 9
30 49 10
30 50 6
30 51 7
30 52 3
30 53 6
30 54 5
30 55 9
30 56 6
30 57 1
30 58 5
30 59 6
30 60 12
30 61 5
30 62 7
30 63 4
30 65 6
30 66 7
30 67 9
30 68 4
30 69 3
30 70 5
30 71 9
30 72 6
30 73 10
30 74 5
30 75 6
30 76 8
30 77 6
30 78 8
30 79 6
30 80 7
30 81 4
30 82 11
30 83 9
30 84 5
30 85 6
30 86 8
30 87 8
30 88 8
30 89 6
30 90 9
30 91 11
30 92 6
30 93 5
30 94 9
30 95 6
30 96 7
30 97 3
30 98 3
30 99 5
30 100 8
31 1 7
31 2 9
31 3 8
31 4 4
31 5 5
31 6 9
31 7 14
31 8 4
31 9 5
31 10 5
31 11 7
31 12 4
31 13 12
31 14 7
31 15 4
31 16 5
31 17 5
31 18 7
31 19 5
31 20 12
31 21 6
31 22 7
31 23 6
31 24 5
31 25 1
31 26 5
31 27 5
31 28 8
31 29 4
31 30 9
31 31 9
31 32 4
31 33 9
31 34 9
31 35 7
31 36 8
31 37 6
31 38 9
31 39 8
31 40 7
31 41 4
31 42 6
31 43 4
31 44 6
31 45 6
31 46 8
31 47 6
31 48 1
31 49 7
31 50 6
31 51 6
31 52 5
31 53 6
31 54 10
31 55 3
31 56 5
31 57 4
31 58 10
31 59 8
31 60 7
31 61 5
31 62 6
31 63 7
31 64 5
31 65 5
31 66 2
31 67 3
31 68 4
31 69 3
31 70 1
31 71 13
31 72 6
31 73 10
31 74 4
31 75 4
31 76 5
31 77 4
31 78 7
31 79 7
31 80 9
31 81 5
31 82 3
31 83 7
31 84 4
31 85 6
31 86 7
31 88 7
31 89 5
31 90 1
31 91 7
31 93 10
31 94 11
31 95 4
31 96 6
31 97 3
31 98 5
31 99 4
31 100 3
32 1 6
32 2 8
32 3 3
32 4 5
32 5 7
32 6 4
32 7 6
32 8 5
32 9 10
32 10 6
32 11 5
32 12 8
32 13 6
32 14 3
32 15 6
32 16 8
32 17 5
32 18 6
32 19 1
32 20 4
32 21 7
32 22 11
32 23 6
32 24 9
32 25 1
32 26 8
32 27 5
32 28 8
32 29 4
32 30 8
32 31 8
32 32 6
32 33 6
32 34 5
32 35 7
32 36 9
32 37 8
32 38 4
32 39 12
32 40 9
32 41 3
32 42 4
32 43 7
32 44 3
32 45 5
32 46 1
32 47 3
32 48 2
32 49 8
32 50 5
32 51 11
32 52 6
32 53 8
32 54 5
32 55 5
32 56 7
32 57 7
32 58 6
32 59 9
32 60 9
32 61 8
32 62 9
32 63 4
32 64 7
32 65 7
32 66 3
32 67 9
32 68 5
32 69 4
32 70 8
32 71 12
32 72 5
32 73 6
32 74 8
32 75 9
32 76 7
32 77 4
32 78 6
32 79 6
32 80 5
32 81 7
32 82 6
32 83 12
32 84 3
32 85 2
32 86 6
32 87 10
32 88 5
32 89 5
32 90 7
32 91 8
32 92 3
32 93 2
32 94 4
32 95 2
32 96 6
32 97 4
32 98 6
32 99 4
32 100 6
33 1 13
33 2 6
33 3 6
33 4 6
33 5 4
33 6 6
33 7 14
33 8 6
33 9 5
33 10 4
33 11 6
33 12 6
33 13 6
33 14 4
33 15 3
33 16 7
33 17 7
33 18 9
33 19 5
33 20 4
33 21 5
33 22 9
33 23 10
33 24 5
33 25 6
33 26 5
33 27 5
33 28 3
33 29 6
33 30 12
33 31 3
33 32 5
33 33 5
33 34 7
33 35 8
33 36 7
33 37 6
33 38 6
33 39 3
33 40 9
33 41 12
33 42 2
33 43 10
33 44 5
33 45 5
33 46 1
33 47 7
33 48 4
33 49 6
33 50 3
33 51 8
33 52 12
33 53 7
33 54 8
33 55 6
33 56 3
33 57 5
33 58 8
33 59 1
33 60 6
33 61 6
33 62 4
33 63 4
33 64 8
33 65 3
33 66 8
33 67 8
33 68 8
33 69 8
33 70 3
33 71 4
33 72 8
33 73 4
33 74 14
33 75 8
33 76 4
33 77 4
33 78 3
33 79 8
33 80 5
33 81 2
33 82 5
33 83 5
33 84 7
33 85 3
33 86 3
33 87 7
33 88 10
33 89 3
33 90 14
33 91 10
33 92 7
33 93 7
33 94 6
33 95 9
33 96 5
33 97 11
33 98 7
33 99 7
33 100 3
34 1 2
34 2 4
34 3 7
34 4 10
34 5 7
34 6 6
34 7 7
34 8 9
34 9 1
34 10 7
34 11 6
34 12 2
34 13 11
34 14 8
34 15 6
34 16 8
34 17 11
34 18 7
34 19 9
34 20 3
34 21 9
34 22 7
34 23 8
34 24 8
34 25 9
34 26 9
34 27 4
34 28 9
34 29 9
34 30 4
34 31 9
34 32 5
34 33 10
34 34 11
34 35 6
34 36 5
34 37 3
34 38 5
34 39 5
34 40 8
34 41 4
34 42 5
34 43 7
34 44 3
34 45 8
34 46 2
34 47 8
34 48 4
34 49 6
34 50 7
34 51 8
34 52 4
34 53 5
34 54 13
34 55 6
34 56 8
34 57 7
34 58 7
34 59 2
34 60 6
34 61 9
34 62 9
34 63 5
34 64 9
34 65 10
34 66 5
34 67 5
34 68 7
34 69 7
34 70 6
34 71 5
34 72 8
34 73 4
34 74 2
34 75 7
34 76 3
34 77 11
34 78 3
34 79 6
34 80 7
34 81 4
34 82 10
34 83 4
34 84 9
34 85 4
34 86 10
34 87 7
34 88 6
34 89 8
34 90 7
34 91 4
34 92 4
34 93 6
34 94 6
34 95 6
34 96 6
34 97 4
34 98 4
34 99 10
34 100 5
35 1 1
35 3 2
35 5 7
35 6 2
35 8 4
35 10 2
35 11 3
35 12 2
35 13 4
35 14 5
35 15 2
35 16 2
35 17 5
35 18 5
35 19 1
35 20 3
35 21 2
35 22 5
35 23 3
35 24 1
35 25 16
35 26 1
35 27 4
35 28 4
35 31 1
35 33 5
35 34 5
35 35 2
35 36 4
35 37 3
35 38 1
35 39 4
35 40 1
35 41 2
35 42 3
35 43 2
35 44 2
35 45 2
35 46 1
35 47 1
35 49 3
35 50 10
35 51 3
35 52 1
35 53 2
35 55 2
35 56 5
35 57 1
35 58 3
35 59 1
35 60 1
35 62 1
35 63 5
35 64 1
35 67 1
35 69 2
35 70 4
35 71 2
35 72 4
35 73 3
35 74 3
35 75 1
35 76 2
35 77 3
35 79 2
35 80 1
35 81 6
35 82 2
35 83 2
35 84 7
35 85 3
35 86 5
35 87 2
35 88 2
35 91 2
35 92 4
35 93 4
35 94 2
35 95 3
35 96 3
35 97 2
35 98 3
35 99 2
35 100 1
36 1 1
36 2 2
36 3 2
36 5 9
36 6 4
36 7 2
36 8 1
36 9 3
36 10 2
36 11 1
36 12 2
36 13 5
36 14 2
36 15 3
36 16 3
36 17 5
36 18 5
36 20 4
36 23 6
36 24 3
36 25 5
36 26 1
36 27 1
36 28 4
36 29 1
36 30 2
36 31 6
36 32 2
36 33 2
36 34 3
36 35 1
36 36 2
36 37 4
36 39 3
36 40 1
36 41 1
36 42 3
36 43 4
36 44 1
36 45 2
36 46 3
36 48 4
36 49 2
36 50 4
36 51 4
36 52 3
36 53 1
36 54 2
36 55 8
36 56 6
36 57 1
36 58 3
36 59 3
36 60 3
36 61 3
36 62 1
36 63 2
36 64 1
36 65 1
36 66 1
36 67 3
36 69 2
36 70 1
36 71 1
36 72 1
36 73 2
36 74 1
36 75 1
36 77 5
36 78 4
36 79 2
36 80 3
36 81 3
36 82 1
36 83 2
36 84 1
36 86 1
36 87 4
36 88 1
36 89 1
36 90 2
36 93 2
36 95 1
36 96 1
36 97 3
36 98 3
36 99 2
37 1 3
37 2 5
37 4 3
37 5 4
37 6 2
37 7 3
37 8 3
37 10 1
37 12 2
37 13 4
37 14 4
37 15 2
37 16 2
37 17 3
37 18 6
37 20 5
37 22 2
37 23 2
37 24 2
37 25 4
37 27 3
37 29 1
37 30 2
37 31 1
37 32 4
37 33 3
37 34 9
37 35 4
37 36 5
37 37 5
37 38 1
37 39 1
37 40 1
37 41 1
37 42 1
37 43 9
37 44 1
37 45 1
37 48 2
37 49 3
37 50 6
37 51 5
37 52 1
37 53 1
37 55 5
37 56 2
37 58 2
37 60 1
37 61 3
37 62 1
37 63 8
37 64 2
37 65 1
37 68 1
37 69 1
37 70 6
37 71 4
37 72 8
37 73 5
37 74 2
37 76 3
37 77 5
37 79 2
37 80 5
37 81 4
37 82 1
37 83 3
37 84 1
37 85 1
37 86 3
37 87 6
37 88 1
37 89 1
37 93 4
37 94 6
37 95 1
37 96 5
37 97 3
37 98 2
37 99 2
37 100 1
38 1 2
38 3 1
38 5 6
38 6 9
38 8 9
38 9 2
38 10 2
38 13 6
38 14 5
38 16 2
38 17 5
38 18 8
38 19 1
38 20 4
38 21 3
38 22 1
38 23 3
38 24 1
38 25 7
38 29 3
38 30 1
38 31 1
38 32 2
38 33 6
38 34 4
38 35 1
38 36 3
38 37 3
38 39 2
38 42 2
38 43 2
38 44 3
38 46 1
38 47 3
38 48 3
38 50 7
38 51 2
38 53 1
38 54 5
38 55 6
38 56 3
38 57 1
38 58 2
38 59 2
38 60 1
38 61 5
38 63 4
38 64 4
38 65 1
38 66 3
38 68 2
38 70 3
38 72 6
38 73 6
38 74 2
38 75 1
38 76 1
38 77 1
38 78 1
38 79 6
38 80 4
38 81 2
38 82 1
38 83 2
38 84 1
38 85 1
38 86 2
38 87 4
38 88 2
38 89 3
38 91 1
38 92 1
38 93 1
38 94 4
38 95 4
38 96 2
38 97 3
38 99 2
38 100 2
39 1 3
39 3 1
39 4 2
39 5 4
39 6 4
39 7 1
39 8 4
39 9 1
39 10 1
39 11 1
39 12 1
39 13 2
39 14 1
39 17 9
39 18 3
39 19 3
39 20 5
39 21 3
39 22 1
39 23 3
39 25 3
39 26 1
39 27 1
39 28 2
39 29 3
39 30 1
39 31 3
39 32 3
39 33 3
39 34 4
39 36 3
39 37 1
39 38 2
39 39 1
39 40 1
39 42 2
39 43 3
39 45 3
39 46 4
39 48 2
39 49 1
39 50 2
39 51 3
39 52 4
39 55 4
39 56 5
39 57 1
39 58 1
39 59 1
39 60 1
39 61 7
39 63 1
39 64 1
39 65 2
39 66 2
39 67 1
39 68 1
39 69 3
39 70 1
39 72 4
39 73 6
39 74 3
39 76 2
39 77 8
39 78 6
39 79 4
39 80 3
39 81 3
39 82 1
39 83 2
39 84 2
39 85 3
39 86 2
39 87 7
39 88 3
39 89 2
39 90 3
39 93 2
39 94 4
39 95 3
39 96 3
39 97 2
39 98 2
39 100 1
40 1 2
40 2 2
40 3 3
40 4 2
40 5 5
40 6 4
40 7 1
40 8 5
40 11 1
40 12 2
40 13 5
40 14 4
40 16 1
40 17 5
40 18 4
40 19 1
40 20 3
40 21 1
40 23 6
40 24 1
40 25 1
40 26 1
40 27 2
40 28 3
40 29 1
40 30 3
40 32 1
40 33 2
40 34 5
40 35 2
40 36 4
40 37 2
40 40 2
40 41 1
40 42 6
40 43 2
40 44 3
40 45 7
40 46 1
40 47 1
40 48 2
40 50 2
40 51 9
40 52 3
40 53 1
40 54 3
40 55 5
40 56 8
40 57 2
40 59 4
40 60 3
40 61 5
40 62 1
40 63 8
40 64 1
40 65 1
40 66 3
40 67 2
40 68 2
40 69 1
40 70 8
40 72 4
40 73 2
40 74 2
40 75 3
40 76 3
40 77 2
40 78 2
40 79 2
40 80 2
40 81 5
40 82 1
40 83 2
40 84 3
40 86 4
40 87 3
40 89 2
40 90 1
40 91 3
40 92 3
40 93 1
40 94 2
40 95 3
40 96 3
40 98 2
41 1 2
41 3 2
41 4 1
41 5 2
41 6 4
41 7 2
41 8 5
41 9 1
41 10 3
41 11 2
41 12 3
41 13 1
41 14 2
41 15 4
41 16 3
41 17 5
41 18 9
41 19 1
41 21 3
41 22 6
41 25 3
41 28 1
41 29 3
41 30 1
41 31 1
41 32 1
41 33 2
41 34 4
41 35 1
41 36 2
41 37 1
41 38 3
41 39 2
41 40 2
41 41 3
41 42 6
41 43 4
41 44 2
41 45 6
41 48 1
41 50 5
41 51 5
41 53 2
41 55 7
41 56 3
41 57 2
41 58 2
41 59 2
41 60 4
41 61 5
41 62 1
41 63 5
41 64 6
41 66 1
41 67 2
41 68 2
41 70 2
41 71 4
41 72 4
41 73 4
41 74 4
41 76 1
41 77 7
41 78 2
41 79 5
41 80 7
41 81 3
41 82 1
41 83 2
41 85 3
41 87 5
41 88 2
41 89 3
41 90 2
41 91 2
41 92 2
41 93 1
41 94 3
41 96 4
41 97 1
41 98 3
41 99 3
41 100 1
42 1 1
42 2 2
42 3 6
42 4 2
42 5 2
42 6 2
42 7 4
42 8 2
42 9 1
42 10 1
42 11 2
42 12 2
42 13 2
42 14 2
42 15 3
42 17 1
42 18 3
42 20 2
42 21 1
42 22 2
42 23 2
42 24 1
42 25 4
42 26 1
42 28 1
42 31 2
42 32 1
42 33 2
42 34 2
42 36 1
42 37 2
42 38 4
42 41 2
42 42 5
42 43 3
42 45 3
42 47 1
42 48 1
42 50 6
42 51 8
42 53 2
42 55 3
42 56 5
42 58 3
42 59 2
42 60 2
42 61 6
42 62 1
42 63 2
42 64 2
42 65 2
42 66 2
42 67 1
42 68 2
42 69 4
42 70 13
42 71 3
42 72 1
42 73 5
42 74 5
42 75 4
42 76 1
42 77 6
42 78 3
42 79 1
42 80 5
42 81 3
42 82 1
42 83 2
42 84 1
42 85 2
42 87 3
42 88 4
42 90 3
42 92 3
42 93 4
42 94 5
42 95 2
42 96 5
42 97 2
42 98 2
42 99 2
42 100 2
43 1 6
43 2 2
43 3 1
43 5 4
43 6 4
43 7 2
43 8 3
43 9 1
43 10 6
43 11 1
43 12 1
43 13 3
43 14 3
43 15 1
43 16 1
43 17 7
43 18 3
43 19 3
43 20 4
43 21 1
43 23 3
43 24 2
43 25 4
43 26 2
43 27 1
43 28 2
43 29 1
43 30 2
43 31 1
43 32 4
43 33 3
43 34 3
43 36 5
43 38 2
43 39 6
43 40 1
43 41 4
43 42 1
43 43 6
43 44 2
43 45 5
43 46 1
43 47 1
43 48 4
43 49 1
43 50 5
43 51 3
43 52 4
43 53 3
43 54 2
43 55 9
43 57 1
43 58 1
43 60 2
43 61 5
43 62 3
43 63 3
43 65 1
43 66 2
43 70 2
43 71 4
43 72 2
43 73 4
43 74 4
43 77 7
43 80 4
43 81 1
43 82 1
43 83 1
43 84 1
43 85 1
43 86 2
43 87 2
43 88 2
43 90 3
43 91 2
43 92 1
43 93 3
43 94 5
43 95 1
43 96 2
43 97 1
43 98 2
43 100 3
44 1 2
44 2 1
44 3 2
44 4 1
44 5 4
44 6 2
44 7 5
44 8 6
44 9 1
44 10 5
44 11 2
44 13 1
44 15 2
44 16 1
44 17 2
44 18 3
44 20 2
44 21 5
44 22 3
44 23 8
44 25 6
44 26 2
44 27 2
44 28 1
44 29 2
44 30 1
44 31 2
44 32 2
44 33 8
44 34 6
44 35 4
44 36 9
44 37 3
44 38 2
44 39 3
44 40 3
44 42 2
44 43 3
44 44 3
44 45 4
44 46 1
44 47 2
44 50 4
44 51 8
44 54 1
44 55 3
44 56 4
44 57 2
44 58 5
44 59 1
44 60 4
44 61 4
44 62 3
44 64 1
44 66 4
44 67 1
44 68 2
44 69 1
44 70 4
44 71 1
44 72 5
44 73 2
44 74 2
44 75 1
44 76 1
44 77 3
44 78 2
44 79 3
44 80 2
44 81 7
44 82 1
44 83 4
44 85 1
44 86 1
44 87 1
44 89 2
44 91 1
44 92 1
44 93 2
44 95 1
44 96 2
44 97 7
44 98 2
44 99 3
44 100 1
45 1 2
45 3 2
45 4 5
45 5 3
45 6 1
45 8 3
45 10 5
45 11 1
45 12 2
45 13 6
45 14 2
45 15 2
45 16 2
45 17 7
45 18 3
45 19 1
45 20 7
45 21 2
45 22 2
45 23 1
45 24 2
45 25 1
45 26 2
45 27 2
45 28 3
45 29 1
45 30 2
45 31 2
45 32 1
45 33 3
45 34 6
45 36 4
45 37 2
45 38 3
45 40 2
45 41 1
45 43 1
45 45 1
45 46 1
45 47 1
45 48 3
45 49 2
45 50 1
45 51 8
45 52 1
45 53 2
45 54 1
45 55 3
45 56 3
45 57 2
45 58 2
45 59 3
45 60 1
45 61 4
45 62 1
45 63 4
45 64 1
45 65 1
45 68 5
45 69 1
45 70 2
45 71 2
45 72 6
45 73 3
45 74 3
45 75 3
45 76 3
45 77 3
45 78 1
45 79 1
45 80 2
45 81 1
45 84 3
45 85 2
45 86 1
45 87 6
45 89 1
45 90 2
45 91 2
45 92 1
45 93 4
45 94 8
45 96 4
45 97 1
45 99 1
46 2 1
46 3 1
46 4 1
46 5 3
46 6 4
46 7 1
46 8 5
46 9 3
46 10 2
46 12 2
46 13 3
46 14 2
46 15 1
46 16 5
46 17 1
46 18 3
46 19 2
46 20 2
46 21 1
46 23 5
46 24 1
46 25 4
46 26 1
46 27 1
46 28 2
46 30 2
46 32 1
46 33 5
46 34 7
46 36 4
46 37 5
46 38 2
46 39 2
46 40 2
46 41 1
46 43 4
46 44 1
46 45 4
46 48 1
46 50 5
46 51 4
46 52 3
46 53 2
46 54 1
46 55 6
46 56 5
46 57 4
46 58 2
46 59 1
46 62 3
46 63 9
46 64 1
46 65 1
46 66 4
46 67 3
46 68 3
46 70 7
46 71 2
46 72 5
46 73 3
46 74 3
46 76 1
46 77 5
46 79 2
46 80 7
46 81 3
46 82 1
46 84 1
46 85 1
46 86 3
46 87 3
46 88 2
46 89 1
46 91 1
46 92 3
46 93 8
46 94 5
46 95 2
46 96 3
46 97 3
46 98 1
46 100 1
47 1 1
47 3 2
47 4 1
47 5 4
47 6 2
47 7 2
47 8 2
47 10 2
47 12 4
47 13 2
47 14 5
47 15 3
47 17 2
47 18 4
47 19 1
47 20 4
47 21 1
47 22 1
47 23 4
47 24 1
47 25 4
47 26 1
47 27 4
47 28 1
47 29 1
47 30 1
47 33 4
47 34 3
47 35 4
47 36 3
47 37 2
47 38 3
47 40 1
47 41 1
47 42 1
47 43 6
47 44 3
47 45 3
47 46 1
47 47 1
47 48 3
47 49 2
47 50 4
47 51 7
47 54 1
47 55 6
47 56 2
47 57 5
47 58 2
47 59 1
47 61 5
47 62 4
47 63 5
47 64 1
47 65 2
47 67 4
47 69 2
47 70 4
47 71 1
47 72 7
47 73 4
47 74 2
47 76 1
47 77 3
47 78 5
47 79 2
47 80 1
47 81 5
47 82 4
47 86 1
47 87 5
47 88 2
47 89 1
47 90 1
47 91 1
47 92 3
47 93 3
47 94 6
47 96 5
47 99 2
48 1 1
48 2 4
48 3 3
48 5 3
48 6 3
48 7 2
48 8 3
48 9 1
48 11 1
48 12 1
48 13 2
48 14 1
48 16 1
48 17 1
48 18 4
48 19 1
48 20 3
48 21 2
48 22 2
48 23 4
48 24 3
48 25 3
48 26 2
48 31 2
48 32 1
48 33 6
48 34 7
48 35 1
48 36 6
48 37 2
48 38 1
48 39 1
48 40 2
48 42 3
48 43 2
48 44 1
48 45 6
48 47 2
48 49 3
48 50 3
48 51 12
48 52 2
48 53 1
48 54 4
48 55 6
48 56 6
48 57 1
48 59 3
48 60 1
48 61 3
48 62 5
48 63 3
48 64 2
48 65 2
48 66 1
48 68 2
48 69 2
48 70 7
48 71 1
48 72 6
48 73 2
48 74 1
48 76 2
48 77 3
48 78 2
48 80 6
48 81 3
48 83 1
48 84 2
48 86 1
48 87 6
48 88 4
48 90 1
48 91 1
48 92 3
48 93 1
48 94 6
48 95 1
48 96 5
48 97 1
48 99 1
48 100 1
49 1 1
49 3 3
49 4 2
49 5 1
49 6 4
49 8 8
49 9 2
49 10 2
49 11 2
49 12 1
49 13 1
49 14 1
49 15 1
49 16 2
49 17 3
49 18 7
49 19 1
49 20 2
49 22 1
49 23 4
49 25 2
49 26 4
49 27 1
49 28 1
49 29 2
49 30 1
49 31 3
49 32 1
49 33 5
49 34 2
49 35 1
49 36 2
49 37 6
49 38 4
49 39 3
49 42 1
49 43 2
49 45 2
49 48 1
49 49 1
49 50 4
49 51 2
49 52 1
49 53 1
49 55 4
49 56 5
49 57 4
49 59 2
49 61 3
49 62 2
49 63 6
49 64 2
49 65 2
49 68 6
49 69 2
49 70 2
49 71 1
49 72 1
49 75 1
49 76 1
49 77 3
49 79 2
49 80 2
49 81 2
49 82 1
49 83 2
49 84 2
49 85 1
49 86 2
49 87 3
49 90 3
49 91 1
49 92 1
49 93 1
49 94 4
49 96 4
49 99 3
49 100 1
50 1 1
50 2 2
50 4 2
50 5 5
50 6 2
50 8 4
50 9 3
50 10 3
50 12 2
50 13 4
50 14 1
50 16 3
50 17 4
50 18 5
50 19 2
50 20 1
50 21 1
50 22 2
50 23 3
50 24 1
50 25 6
50 26 3
50 27 4
50 28 2
50 29 2
50 30 1
50 32 1
50 33 6
50 34 5
50 35 2
50 36 1
50 37 3
50 38 1
50 39 1
50 40 2
50 41 2
50 42 4
50 43 6
50 44 2
50 45 4
50 46 2
50 48 2
50 50 3
50 51 4
50 52 1
50 53 4
50 55 2
50 56 4
50 58 1
50 59 2
50 61 2
50 62 1
50 63 2
50 64 3
50 65 1
50 66 4
50 70 9
50 71 3
50 72 5
50 73 6
50 75 2
50 76 2
50 77 3
50 78 1
50 79 3
50 80 3
50 81 8
50 82 1
50 83 1
50 85 2
50 86 1
50 87 5
50 88 2
50 90 3
50 91 1
50 92 1
50 94 4
50 95 2
50 96 2
50 97 5
50 98 1
50 99 1
50 100 2
51 2 2
51 3 1
51 4 1
51 5 4
51 6 3
51 8 7
51 10 1
51 11 1
51 12 1
51 13 4
51 14 2
51 15 1
51 16 1
51 17 6
51 18 8
51 20 1
51 21 2
51 22 2
51 23 4
51 25 6
51 26 1
51 28 4
51 29 2
51 30 1
51 32 2
51 33 2
51 34 6
51 35 2
51 36 2
51 37 3
51 38 2
51 39 1
51 41 1
51 42 1
51 43 5
51 44 1
51 45 2
51 46 3
51 47 7
51 48 1
51 50 2
51 51 8
51 52 2
51 53 3
51 54 2
51 55 4
51 56 8
51 57 2
51 58 2
51 59 3
51 60 3
51 62 2
51 63 4
51 65 1
51 68 1
51 69 5
51 70 7
51 72 4
51 73 11
51 74 2
51 75 2
51 76 2
51 77 5
51 78 2
51 79 2
51 80 7
51 81 2
51 86 3
51 87 4
51 88 1
51 90 2
51 91 1
51 92 1
51 93 1
51 94 3
51 96 2
51 97 1
51 98 2
51 99 1
51 100 1
52 1 1
52 2 1
52 5 6
52 6 4
52 8 7
52 10 2
52 12 1
52 13 1
52 14 1
52 15 4
52 17 8
52 18 6
52 19 1
52 20 10
52 21 1
52 22 1
52 23 5
52 24 3
52 25 3
52 26 1
52 27 1
52 28 2
52 29 1
52 30 3
52 31 1
52 32 2
52 33 2
52 34 3
52 36 6
52 37 4
52 38 2
52 39 3
52 41 2
52 42 2
52 43 6
52 44 1
52 45 4
52 47 1
52 48 4
52 50 4
52 51 3
52 52 1
52 55 1
52 57 2
52 58 3
52 59 1
52 60 3
52 61 2
52 62 1
52 63 3
52 64 1
52 65 4
52 70 3
52 71 1
52 72 11
52 73 6
52 74 3
52 75 1
52 76 2
52 77 7
52 78 2
52 79 1
52 80 2
52 81 3
52 82 2
52 84 3
52 85 4
52 86 2
52 87 3
52 88 1
52 89 1
52 90 2
52 91 2
52 92 1
52 94 4
52 95 2
52 96 4
52 97 3
52 98 2
52 99 3
52 100 3
53 1 1
53 2 1
53 3 3
53 5 8
53 6 5
53 7 2
53 8 4
53 9 1
53 10 4
53 12 1
53 13 9
53 14 3
53 16 3
53 17 8
53 18 2
53 19 2
53 20 6
53 22 2
53 23 4
53 24 2
53 25 6
53 26 1
53 27 2
53 28 5
53 29 2
53 30 1
53 31 1
53 32 2
53 33 2
53 34 8
53 35 1
53 36 2
53 37 2
53 38 1
53 41 2
53 42 2
53 43 6
53 44 1
53 45 1
53 46 1
53 47 1
53 48 1
53 49 3
53 50 7
53 51 5
53 52 2
53 53 2
53 54 2
53 55 1
53 56 11
53 57 2
53 58 2
53 60 2
53 61 4
53 63 3
53 64 1
53 65 3
53 66 3
53 67 2
53 68 1
53 69 3
53 70 4
53 72 2
53 73 2
53 74 4
53 75 4
53 76 2
53 77 3
53 78 1
53 79 2
53 80 4
53 81 1
53 83 3
53 86 1
53 87 3
53 88 1
53 90 2
53 91 3
53 92 4
53 93 2
53 94 3
53 95 1
53 97 1
53 98 1
53 99 3
54 1 2
54 2 6
54 3 2
54 4 3
54 5 6
54 6 3
54 7 3
54 8 4
54 9 5
54 10 5
54 11 2
54 12 1
54 13 4
54 14 3
54 15 2
54 16 1
54 17 2
54 18 1
54 20 1
54 21 2
54 22 2
54 23 2
54 24 2
54 25 3
54 26 2
54 27 1
54 29 4
54 30 2
54 31 1
54 32 2
54 33 6
54 34 4
54 35 1
54 36 4
54 37 7
54 39 1
54 40 1
54 41 1
54 43 3
54 45 3
54 46 1
54 47 2
54 50 4
54 51 2
54 52 1
54 54 3
54 55 4
54 57 4
54 58 1
54 59 2
54 60 1
54 61 3
54 62 2
54 63 4
54 64 2
54 65 1
54 66 1
54 67 2
54 69 1
54 70 3
54 71 3
54 72 2
54 73 5
54 75 3
54 76 4
54 77 6
54 78 1
54 79 4
54 80 8
54 81 4
54 83 4
54 84 2
54 85 2
54 86 1
54 87 6
54 88 1
54 89 1
54 90 4
54 91 4
54 92 3
54 94 3
54 95 1
54 96 9
54 97 1
54 98 1
54 99 3
55 1 1
55 2 1
55 3 1
55 4 2
55 5 1
55 6 3
55 7 1
55 8 3
55 9 2
55 10 2
55 11 2
55 12 1
55 13 1
55 14 3
55 16 2
55 17 3
55 18 6
55 19 1
55 20 3
55 22 4
55 23 5
55 24 4
55 25 6
55 26 2
55 28 2
55 29 2
55 30 3
55 31 3
55 32 3
55 33 4
55 34 4
55 35 2
55 36 3
55 37 1
55 38 2
55 39 3
55 40 1
55 41 2
55 42 3
55 43 8
55 45 8
55 46 1
55 47 3
55 48 1
55 49 1
55 50 6
55 51 5
55 52 3
55 53 2
55 55 2
55 56 5
55 57 1
55 58 2
55 60 4
55 61 3
55 62 1
55 63 3
55 64 2
55 65 1
55 66 4
55 68 4
55 69 2
55 70 2
55 71 1
55 72 7
55 73 3
55 74 2
55 76 1
55 77 3
55 80 3
55 81 7
55 82 1
55 83 1
55 84 3
55 86 1
55 87 3
55 88 2
55 89 3
55 90 2
55 91 1
55 92 4
55 93 2
55 94 4
55 95 1
55 97 2
55 99 1
56 1 2
56 2 3
56 3 3
56 5 7
56 6 5
56 7 1
56 8 6
56 10 3
56 11 1
56 12 1
56 13 6
56 15 4
56 17 4
56 18 7
56 19 3
56 20 2
56 21 1
56 22 1
56 23 7
56 25 1
56 26 1
56 27 1
56 29 3
56 31 2
56 32 1
56 33 5
56 34 5
56 36 3
56 37 1
56 38 1
56 39 1
56 40 2
56 41 1
56 42 2
56 43 6
56 44 4
56 45 4
56 46 4
56 48 1
56 49 3
56 50 4
56 51 2
56 52 4
56 53 2
56 55 4
56 56 13
56 57 1
56 58 3
56 59 3
56 60 1
56 63 2
56 64 1
56 65 3
56 66 3
56 67 2
56 68 2
56 69 2
56 70 6
56 71 1
56 72 2
56 73 5
56 75 1
56 76 3
56 77 5
56 78 3
56 79 4
56 80 3
56 81 8
56 82 3
56 84 2
56 85 1
56 86 1
56 87 5
56 89 1
56 91 2
56 92 4
56 94 6
56 96 4
56 97 3
56 98 2
57 1 3
57 2 1
57 3 5
57 4 1
57 5 6
57 6 5
57 7 1
57 8 5
57 9 2
57 10 4
57 11 1
57 12 1
57 13 3
57 14 1
57 16 1
57 17 1
57 18 2
57 19 1
57 20 3
57 22 4
57 23 5
57 24 1
57 25 4
57 26 2
57 27 3
57 28 2
57 29 1
57 30 1
57 31 1
57 32 2
57 33 5
57 34 6
57 35 1
57 36 4
57 37 4
57 38 2
57 39 1
57 40 1
57 41 1
57 42 1
57 43 3
57 45 1
57 46 3
57 47 2
57 48 3
57 49 2
57 50 3
57 51 8
57 54 2
57 55 3
57 56 1
57 58 1
57 59 1
57 60 4
57 61 1
57 62 3
57 63 6
57 64 1
57 65 1
57 66 2
57 68 1
57 69 4
57 70 6
57 71 2
57 72 2
57 73 5
57 74 1
57 75 1
57 76 1
57 77 1
57 78 7
57 79 2
57 80 5
57 81 3
57 82 3
57 83 1
57 84 2
57 85 2
57 86 1
57 87 4
57 88 1
57 89 3
57 90 3
57 91 5
57 92 3
57 93 1
57 94 3
57 95 2
57 96 2
57 97 1
57 98 1
57 99 2
57 100 3
58 2 3
58 5 4
58 6 3
58 7 1
58 8 3
58 9 1
58 10 5
58 12 4
58 13 7
58 14 3
58 16 1
58 17 2
58 18 6
58 19 1
58 20 6
58 22 1
58 23 1
58 24 1
58 25 5
58 26 1
58 27 1
58 28 1
58 29 2
58 30 1
58 31 2
58 32 1
58 33 6
58 34 9
58 35 1
58 36 4
58 37 2
58 39 1
58 40 1
58 41 3
58 42 1
58 44 1
58 45 4
58 46 2
58 47 1
58 48 2
58 49 2
58 50 4
58 51 2
58 53 3
58 54 1
58 55 4
58 56 7
58 57 1
58 59 1
58 60 1
58 61 8
58 62 1
58 63 1
58 64 3
58 65 1
58 66 4
58 68 5
58 69 2
58 70 2
58 72 3
58 73 2
58 74 1
58 76 3
58 77 6
58 78 2
58 79 1
58 80 7
58 82 2
58 83 1
58 84 2
58 85 1
58 86 2
58 87 7
58 88 1
58 89 1
58 90 1
58 91 1
58 93 3
58 94 2
58 96 7
58 98 2
58 99 1
58 100 5
59 1 1
59 2 2
59 4 1
59 5 3
59 6 6
59 7 3
59 8 5
59 9 3
59 10 1
59 11 1
59 12 2
59 13 5
59 14 1
59 15 3
59 16 1
59 17 6
59 18 3
59 19 3
59 21 5
59 22 2
59 23 4
59 24 2
59 25 6
59 26 2
59 27 2
59 29 2
59 30 2
59 31 1
59 32 1
59 33 9
59 34 6
59 35 3
59 36 5
59 37 1
59 38 2
59 39 4
59 41 1
59 42 1
59 43 4
59 44 4
59 45 4
59 46 1
59 47 1
59 48 2
59 50 5
59 51 7
59 52 2
59 53 2
59 54 2
59 55 2
59 56 5
59 57 1
59 58 1
59 59 1
59 60 1
59 61 4
59 63 5
59 64 1
59 66 2
59 67 1
59 68 2
59 70 6
59 72 2
59 73 3
59 77 5
59 80 2
59 81 2
59 82 1
59 83 4
59 84 1
59 85 1
59 86 2
59 87 3
59 89 2
59 90 1
59 91 2
59 92 2
59 93 2
59 94 7
59 96 5
59 97 1
59 98 2
59 99 2
59 100 2
60 1 3
60 2 1
60 3 2
60 4 3
60 5 2
60 6 6
60 7 4
60 8 5
60 9 1
60 10 3
60 12 1
60 13 5
60 14 1
60 15 4
60 16 2
60 17 1
60 18 5
60 19 2
60 20 1
60 21 3
60 22 1
60 23 1
60 24 1
60 25 5
60 26 5
60 27 2
60 28 1
60 30 1
60 31 1
60 32 1
60 33 7
60 34 3
60 35 1
60 36 1
60 37 2
60 38 4
60 39 1
60 40 1
60 41 3
60 42 3
60 43 4
60 44 1
60 45 2
60 46 2
60 47 2
60 48 2
60 50 4
60 51 3
60 52 3
60 53 2
60 54 1
60 55 5
60 56 3
60 57 4
60 58 3
60 59 3
60 60 1
60 61 3
60 62 1
60 63 4
60 64 4
60 65 2
60 66 4
60 68 5
60 69 1
60 70 2
60 71 4
60 72 6
60 73 2
60 74 1
60 75 1
60 76 1
60 77 3
60 78 2
60 80 4
60 81 3
60 82 2
60 83 2
60 84 4
60 86 2
60 87 5
60 88 3
60 91 1
60 92 2
60 93 3
60 94 2
60 96 3
60 97 2
60 98 1
60 99 2
60 100 2
61 1 6
61 2 1
61 5 3
61 6 5
61 7 1
61 8 4
61 9 1
61 10 2
61 11 3
61 12 1
61 13 8
61 14 2
61 15 5
61 16 2
61 17 3
61 18 6
61 19 1
61 20 2
61 21 4
61 23 4
61 25 5
61 26 2
61 28 1
61 29 2
61 30 1
61 31 1
61 32 2
61 33 6
61 34 2
61 35 2
61 36 2
61 37 6
61 38 1
61 39 3
61 40 2
61 42 1
61 43 5
61 44 1
61 45 3
61 49 3
61 51 7
61 52 1
61 53 3
61 54 2
61 55 7
61 56 4
61 58 2
61 59 3
61 60 1
61 61 6
61 62 1
61 63 2
61 67 2
61 68 2
61 69 1
61 70 4
61 71 3
61 72 8
61 73 8
61 75 2
61 76 1
61 77 4
61 79 1
61 80 2
61 81 4
61 82 2
61 83 2
61 84 5
61 85 1
61 87 7
61 90 2
61 91 2
61 93 2
61 94 3
61 96 1
61 97 1
61 98 1
61 99 1
62 3 2
62 4 2
62 5 3
62 6 7
62 8 3
62 9 2
62 10 1
62 11 3
62 12 2
62 13 6
62 14 1
62 15 1
62 16 2
62 17 3
62 18 8
62 19 1
62 20 5
62 23 7
62 24 1
62 25 4
62 26 2
62 27 3
62 28 1
62 29 2
62 31 1
62 33 3
62 34 2
62 35 1
62 36 7
62 37 4
62 39 3
62 40 2
62 41 1
62 42 2
62 43 4
62 44 4
62 45 1
62 46 2
62 47 3
62 48 1
62 49 2
62 50 6
62 51 6
62 52 1
62 53 2
62 54 1
62 55 5
62 56 3
62 57 2
62 59 1
62 60 1
62 61 5
62 62 2
62 63 10
62 64 3
62 65 3
62 67 1
62 70 7
62 71 1
62 72 2
62 73 5
62 74 1
62 76 2
62 77 3
62 78 3
62 79 4
62 80 2
62 81 3
62 82 2
62 83 1
62 85 2
62 86 2
62 87 9
62 89 2
62 90 1
62 91 1
62 93 2
62 94 6
62 95 1
62 96 6
62 97 2
62 98 3
62 99 2
63 1 4
63 3 1
63 4 2
63 5 4
63 6 6
63 7 1
63 8 2
63 9 2
63 10 1
63 11 2
63 12 1
63 13 7
63 14 3
63 15 1
63 16 1
63 17 3
63 18 1
63 19 1
63 20 2
63 21 2
63 22 1
63 23 5
63 24 1
63 25 2
63 27 1
63 28 3
63 29 1
63 30 3
63 31 1
63 33 5
63 34 3
63 35 3
63 36 3
63 37 2
63 39 2
63 40 1
63 41 1
63 43 3
63 44 1
63 45 6
63 47 1
63 48 1
63 49 3
63 50 3
63 51 7
63 52 2
63 54 1
63 55 7
63 56 4
63 57 1
63 58 1
63 59 1
63 60 3
63 61 6
63 64 3
63 65 1
63 66 1
63 67 1
63 70 3
63 71 2
63 72 2
63 73 4
63 74 3
63 75 1
63 76 1
63 77 3
63 79 2
63 80 1
63 81 6
63 82 1
63 83 3
63 84 3
63 85 4
63 86 5
63 87 8
63 88 3
63 91 5
63 93 5
63 94 5
63 95 5
63 96 2
63 97 1
63 98 1
63 99 2
63 100 3
64 2 1
64 5 6
64 6 9
64 7 2
64 8 2
64 9 2
64 10 4
64 11 3
64 13 3
64 14 8
64 15 2
64 16 2
64 17 10
64 18 4
64 19 2
64 20 3
64 22 3
64 23 7
64 24 4
64 25 2
64 27 1
64 29 1
64 30 3
64 31 2
64 32 2
64 33 3
64 34 1
64 35 1
64 36 2
64 37 2
64 38 3
64 39 2
64 40 1
64 41 3
64 42 5
64 43 1
64 45 4
64 46 2
64 47 3
64 48 1
64 49 2
64 50 2
64 51 2
64 52 1
64 53 1
64 54 1
64 55 3
64 56 9
64 58 2
64 59 3
64 61 8
64 62 1
64 63 7
64 64 1
64 65 1
64 69 1
64 70 3
64 71 4
64 73 2
64 74 2
64 75 1
64 76 1
64 77 3
64 78 1
64 79 3
64 80 4
64 81 4
64 83 3
64 84 2
64 85 2
64 87 2
64 88 1
64 90 3
64 91 2
64 92 3
64 93 2
64 94 9
64 96 3
64 97 3
64 99 2
65 1 3
65 2 3
65 3 9
65 5 3
65 6 1
65 7 2
65 8 3
65 9 2
65 10 2
65 11 2
65 12 1
65 14 3
65 16 2
65 17 2
65 18 1
65 19 1
65 20 5
65 21 2
65 23 3
65 24 1
65 25 3
65 26 1
65 27 2
65 28 6
65 29 2
65 30 3
65 32 1
65 35 3
65 36 7
65 37 5
65 38 2
65 39 4
65 40 7
65 41 1
65 42 2
65 44 3
65 45 6
65 46 4
65 47 4
65 48 1
65 49 5
65 51 3
65 52 1
65 53 2
65 54 4
65 55 2
65 56 2
65 57 4
65 58 1
65 59 3
65 60 3
65 61 2
65 62 1
65 63 2
65 64 1
65 65 1
65 67 4
65 68 2
65 69 2
65 70 4
65 71 4
65 72 1
65 73 3
65 74 2
65 75 4
65 76 3
65 77 2
65 78 2
65 80 2
65 81 1
65 82 1
65 83 2
65 85 3
65 86 2
65 87 2
65 88 1
65 89 3
65 90 2
65 91 4
65 92 4
65 93 3
65 94 3
65 95 2
65 96 2
65 97 2
65 99 5
65 100 2
66 2 4
66 3 4
66 4 2
66 5 2
66 6 2
66 7 2
66 8 2
66 9 3
66 10 2
66 11 3
66 12 5
66 13 2
66 14 2
66 15 4
66 16 3
66 17 1
66 18 2
66 19 3
66 20 3
66 21 7
66 22 3
66 23 4
66 24 3
66 25 4
66 26 3
66 27 4
66 28 7
66 29 7
66 30 1
66 31 3
66 32 4
66 33 4
66 34 1
66 35 2
66 37 5
66 38 3
66 39 1
66 41 2
66 42 1
66 43 2
66 45 3
66 46 3
66 47 1
66 48 2
66 49 5
66 50 5
66 51 4
66 52 9
66 53 2
66 54 1
66 55 2
66 56 4
66 57 5
66 59 3
66 60 3
66 61 1
66 62 1
66 63 1
66 64 2
66 65 5
66 66 2
66 67 2
66 68 3
66 69 6
66 70 4
66 71 4
66 72 3
66 73 2
66 74 2
66 75 1
66 76 1
66 77 3
66 78 4
66 79 7
66 80 1
66 81 3
66 82 2
66 83 3
66 84 2
66 85 1
66 87 5
66 88 4
66 89 4
66 90 1
66 91 6
66 92 3
66 93 3
66 95 2
66 96 3
66 99 1
66 100 2
67 1 3
67 3 1
67 4 2
67 5 3
67 6 1
67 7 4
67 8 2
67 9 1
67 10 2
67 11 1
67 13 4
67 14 3
67 15 1
67 16 2
67 17 9
67 18 2
67 19 3
67 20 1
67 22 4
67 23 5
67 24 4
67 25 7
67 26 4
67 27 2
67 28 3
67 29 2
67 30 2
67 32 1
67 33 1
67 34 2
67 35 3
67 36 1
67 37 2
67 38 6
67 39 4
67 40 3
67 41 1
67 42 7
67 44 1
67 45 2
67 46 2
67 47 1
67 48 3
67 49 3
67 50 2
67 51 5
67 53 1
67 54 4
67 55 4
67 56 3
67 57 3
67 58 1
67 59 2
67 60 2
67 61 2
67 62 2
67 64 1
67 65 2
67 66 5
67 67 7
67 68 2
67 69 2
67 70 2
67 71 1
67 72 1
67 74 4
67 75 4
67 76 2
67 77 8
67 78 2
67 79 7
67 81 2
67 82 1
67 83 6
67 84 4
67 85 2
67 86 3
67 87 1
67 88 1
67 89 3
67 90 5
67 91 3
67 92 5
67 94 2
67 95 1
67 96 1
67 97 1
67 98 2
67 99 2
67 100 3
68 1 1
68 2 4
68 3 5
68 4 3
68 5 6
68 6 7
68 7 4
68 8 8
68 9 1
68 10 4
68 11 3
68 12 4
68 13 7
68 14 2
68 15 1
68 16 3
68 17 20
68 18 5
68 19 1
68 20 8
68 21 6
68 22 1
68 23 5
68 24 2
68 25 11
68 26 3
68 27 4
68 28 3
68 29 6
68 30 5
68 31 5
68 32 6
68 33 8
68 34 7
68 36 12
68 37 3
68 38 2
68 40 4
68 41 5
68 42 1
68 43 8
68 44 4
68 45 7
68 46 5
68 47 1
68 49 1
68 50 6
68 51 6
68 52 2
68 53 1
68 54 2
68 55 7
68 56 13
68 57 7
68 58 4
68 59 1
68 60 5
68 61 7
68 62 7
68 63 3
68 64 3
68 65 5
68 67 2
68 68 3
68 69 2
68 70 9
68 71 1
68 72 9
68 73 12
68 74 5
68 75 7
68 76 5
68 77 9
68 78 4
68 79 3
68 80 5
68 81 8
68 82 2
68 83 5
68 84 6
68 85 3
68 86 2
68 87 13
68 88 3
68 89 5
68 90 2
68 91 6
68 92 9
68 93 2
68 94 9
68 95 5
68 96 7
68 97 3
68 98 4
68 99 1
68 100 1
69 1 3
69 3 3
69 4 5
69 5 10
69 6 12
69 7 3
69 8 7
69 9 3
69 11 2
69 12 4
69 13 12
69 14 3
69 15 3
69 16 6
69 17 6
69 18 15
69 19 4
69 20 7
69 21 4
69 22 4
69 23 10
69 24 2
69 25 8
69 26 2
69 27 1
69 28 4
69 29 1
69 30 6
69 31 5
69 32 3
69 33 8
69 34 8
69 35 5
69 36 10
69 37 7
69 38 3
69 39 5
69 40 3
69 41 3
69 42 6
69 43 6
69 44 2
69 45 7
69 46 1
69 48 4
69 49 2
69 50 10
69 51 6
69 52 2
69 53 5
69 54 1
69 55 3
69 56 9
69 57 9
69 58 1
69 59 1
69 60 2
69 61 11
69 62 3
69 63 10
69 64 3
69 65 1
69 66 3
69 67 2
69 68 1
69 69 3
69 70 10
69 71 3
69 72 8
69 73 17
69 74 4
69 75 2
69 76 6
69 77 8
69 78 5
69 79 2
69 80 7
69 81 8
69 82 3
69 83 2
69 85 3
69 86 5
69 87 9
69 88 5
69 89 6
69 90 5
69 91 4
69 92 2
69 93 4
69 94 8
69 95 3
69 96 8
69 97 1
69 98 3
69 99 5
69 100 5
70 3 2
70 5 11
70 6 5
70 8 11
70 9 1
70 10 1
70 12 2
70 13 3
70 15 1
70 17 2
70 18 6
70 19 1
70 20 13
70 22 1
70 23 7
70 25 3
70 26 2
70 27 1
70 32 1
70 33 9
70 34 13
70 36 8
70 37 5
70 41 1
70 43 7
70 44 3
70 45 10
70 47 1
70 48 1
70 50 4
70 51 3
70 52 1
70 55 7
70 56 9
70 59 1
70 61 4
70 62 1
70 63 17
70 66 2
70 69 1
70 70 5
70 72 6
70 73 5
70 77 5
70 79 1
70 80 6
70 81 11
70 84 1
70 86 3
70 87 3
70 92 1
70 94 11
70 96 7
71 1 2
71 2 1
71 3 1
71 4 3
71 5 5
71 6 4
71 8 5
71 10 1
71 13 12
71 17 4
71 18 6
71 20 4
71 21 5
71 23 8
71 24 1
71 25 7
71 26 1
71 27 2
71 30 1
71 32 2
71 33 8
71 34 2
71 35 1
71 36 7
71 37 9
71 43 7
71 45 3
71 47 1
71 49 1
71 50 7
71 51 9
71 52 1
71 55 7
71 56 5
71 57 1
71 58 2
71 61 5
71 63 13
71 65 3
71 66 1
71 68 1
71 70 3
71 72 6
71 73 4
71 74 2
71 76 1
71 77 3
71 80 8
71 81 9
71 84 1
71 86 2
71 87 5
71 94 5
71 95 2
71 96 7
71 98 1
72 2 2
72 3 1
72 5 6
72 6 8
72 8 5
72 13 5
72 14 1
72 17 7
72 18 9
72 20 8
72 21 1
72 23 12
72 24 1
72 25 4
72 26 1
72 30 1
72 33 5
72 34 5
72 36 7
72 37 8
72 39 1
72 41 1
72 42 1
72 43 5
72 44 1
72 45 2
72 46 1
72 47 1
72 48 1
72 50 9
72 51 4
72 55 8
72 56 9
72 57 1
72 58 1
72 61 8
72 63 5
72 65 1
72 69 1
72 70 6
72 71 1
72 72 6
72 73 6
72 76 1
72 77 5
72 80 4
72 81 3
72 82 1
72 84 3
72 87 5
72 90 3
72 91 2
72 92 1
72 93 1
72 94 3
72 96 6
72 97 3
72 100 1
73 3 2
73 4 1
73 9 1
73 10 7
73 12 1
73 13 1
73 15 1
73 16 2
73 18 1
73 21 11
73 23 1
73 24 2
73 25 1
73 26 1
73 28 1
73 31 1
73 34 1
73 35 1
73 38 1
73 39 1
73 40 11
73 41 7
73 42 4
73 43 2
73 45 2
73 46 1
73 47 1
73 48 1
73 49 2
73 51 1
73 54 1
73 55 1
73 56 1
73 61 1
73 62 1
73 68 2
73 71 1
73 74 7
73 78 6
73 80 2
73 82 1
73 83 1
73 85 1
73 88 1
73 89 1
73 92 1
73 93 1
73 96 2
73 97 1
73 99 3
73 100 1
74 2 1
74 6 1
74 10 2
74 13 1
74 14 1
74 16 2
74 18 2
74 20 1
74 21 3
74 23 1
74 24 2
74 25 2
74 26 1
74 36 2
74 38 1
74 39 2
74 40 3
74 41 7
74 42 14
74 47 1
74 49 2
74 52 1
74 53 1
74 54 1
74 58 1
74 60 1
74 62 3
74 63 1
74 65 1
74 66 1
74 74 4
74 75 1
74 77 3
74 78 6
74 79 1
74 83 1
74 84 1
74 86 4
74 92 1
74 95 1
74 96 1
74 98 1
74 100 3
75 1 1
75 4 1
75 5 12
75 6 7
75 8 8
75 12 1
75 13 4
75 15 1
75 17 9
75 18 8
75 20 2
75 22 2
75 23 7
75 24 1
75 25 4
75 30 2
75 33 5
75 34 14
75 36 4
75 37 7
75 43 6
75 44 1
75 45 2
75 46 1
75 47 1
75 50 10
75 51 6
75 54 1
75 55 2
75 56 4
75 58 2
75 59 1
75 61 3
75 63 5
75 64 1
75 65 2
75 70 5
75 72 9
75 73 3
75 74 1
75 76 1
75 77 6
75 78 1
75 79 1
75 80 7
75 81 12
75 82 1
75 85 1
75 87 4
75 88 1
75 91 1
75 93 3
75 94 6
75 96 7
76 1 1
76 4 3
76 7 8
76 9 5
76 10 2
76 11 3
76 13 1
76 15 2
76 16 6
76 22 11
76 26 3
76 28 2
76 29 1
76 30 8
76 31 1
76 32 1
76 33 1
76 34 2
76 35 5
76 38 4
76 39 1
76 41 1
76 43 2
76 44 5
76 46 1
76 47 5
76 48 8
76 50 1
76 53 5
76 55 2
76 58 6
76 62 1
76 64 2
76 65 10
76 66 1
76 67 4
76 68 1
76 70 1
76 71 9
76 72 1
76 74 2
76 75 1
76 82 13
76 84 5
76 86 5
76 89 2
76 90 1
76 93 1
76 95 8
76 96 2
76 98 4
76 100 1
77 1 1
77 2 1
77 5 6
77 6 12
77 7 1
77 8 5
77 13 3
77 17 4
77 18 9
77 20 11
77 23 7
77 25 4
77 26 1
77 29 1
77 33 7
77 34 13
77 35 1
77 36 5
77 37 5
77 39 1
77 43 5
77 44 4
77 45 5
77 48 1
77 49 1
77 50 8
77 51 13
77 53 3
77 54 2
77 55 12
77 56 5
77 57 1
77 58 2
77 61 6
77 63 7
77 65 1
77 70 9
77 72 10
77 73 4
77 77 4
77 78 2
77 79 1
77 80 10
77 81 8
77 87 9
77 90 1
77 91 3
77 92 2
77 93 1
77 94 5
77 96 14
77 98 1
77 100 2
78 1 2
78 5 9
78 6 8
78 8 7
78 11 1
78 13 5
78 14 1
78 15 1
78 16 3
78 17 1
78 18 5
78 19 2
78 20 7
78 21 1
78 22 2
78 23 10
78 24 1
78 25 5
78 27 1
78 28 1
78 29 1
78 30 1
78 31 1
78 33 6
78 34 5
78 35 1
78 36 8
78 37 5
78 38 1
78 39 1
78 41 1
78 42 1
78 43 7
78 45 3
78 48 2
78 49 2
78 50 7
78 51 7
78 52 1
78 53 1
78 54 2
78 55 5
78 56 5
78 58 1
78 59 4
78 61 3
78 63 8
78 65 2
78 70 6
78 71 1
78 72 6
78 73 8
78 77 9
78 78 1
78 80 5
78 81 8
78 82 3
78 84 2
78 87 5
78 90 2
78 93 1
78 94 9
78 95 1
78 96 10
78 100 1
79 1 1
79 2 2
79 4 1
79 5 1
79 9 1
79 10 6
79 15 1
79 17 1
79 20 3
79 21 5
79 27 1
79 29 1
79 30 1
79 36 1
79 37 2
79 38 1
79 39 2
79 40 3
79 41 8
79 42 10
79 45 1
79 53 1
79 55 1
79 57 1
79 61 2
79 66 1
79 68 1
79 74 9
79 78 10
79 79 1
79 80 1
79 83 1
79 84 1
79 85 1
79 86 1
79 87 2
79 88 3
79 89 1
79 90 1
79 91 1
79 95 2
79 97 1
79 98 2
79 99 1
80 3 1
80 5 5
80 6 3
80 7 2
80 8 4
80 13 8
80 16 2
80 17 6
80 18 9
80 19 1
80 20 6
80 22 1
80 23 4
80 25 4
80 27 1
80 31 1
80 33 7
80 34 2
80 35 1
80 36 11
80 37 7
80 42 1
80 43 4
80 45 11
80 49 2
80 50 11
80 51 10
80 55 8
80 56 11
80 57 2
80 61 4
80 63 1
80 64 4
80 65 1
80 67 1
80 70 3
80 71 2
80 72 4
80 73 10
80 74 1
80 77 12
80 80 10
80 81 4
80 82 2
80 85 1
80 87 6
80 88 1
80 89 1
80 91 3
80 92 2
80 94 14
80 96 4
80 97 1
80 98 2
80 99 1
80 100 1
81 1 3
81 2 3
81 3 8
81 8 1
81 9 1
81 11 1
81 12 9
81 14 6
81 15 4
81 16 2
81 19 5
81 20 1
81 21 1
81 24 6
81 25 1
81 26 9
81 27 5
81 28 3
81 29 13
81 30 2
81 31 5
81 32 3
81 33 1
81 35 1
81 37 1
81 39 5
81 42 1
81 43 1
81 44 1
81 46 8
81 47 2
81 49 9
81 52 6
81 54 3
81 57 7
81 58 2
81 59 2
81 60 6
81 62 9
81 64 6
81 65 2
81 66 1
81 67 2
81 68 7
81 69 14
81 70 1
81 73 1
81 75 10
81 76 5
81 77 1
81 79 10
81 80 1
81 82 2
81 83 7
81 84 1
81 85 4
81 88 3
81 89 5
81 90 5
81 91 4
81 92 5
81 93 4
81 95 2
81 97 5
81 99 4
81 100 8
82 1 2
82 5 1
82 8 1
82 9 2
82 10 13
82 14 2
82 15 1
82 16 1
82 18 1
82 20 1
82 21 10
82 23 1
82 24 1
82 28 1
82 32 1
82 33 1
82 36 1
82 37 2
82 39 1
82 40 12
82 41 13
82 42 6
82 43 1
82 44 3
82 53 1
82 55 1
82 57 1
82 64 1
82 65 1
82 66 1
82 68 1
82 70 1
82 74 7
82 76 2
82 77 1
82 78 6
82 79 2
82 80 1
82 81 1
82 87 1
82 91 1
82 94 1
82 99 3
82 100 1
83 3 3
83 5 3
83 6 2
83 9 1
83 10 8
83 15 1
83 21 10
83 23 1
83 26 1
83 27 1
83 29 1
83 30 1
83 32 1
83 37 1
83 38 1
83 39 2
83 40 10
83 41 2
83 42 7
83 47 1
83 48 1
83 49 1
83 53 1
83 57 1
83 58 1
83 63 2
83 65 2
83 66 1
83 69 2
83 71 2
83 74 5
83 76 3
83 78 3
83 80 1
83 84 1
83 87 1
83 88 1
83 89 1
83 90 1
83 92 3
83 94 1
83 96 1
83 98 2
84 2 1
84 4 1
84 7 2
84 9 1
84 10 3
84 14 1
84 16 3
84 19 1
84 21 7
84 24 2
84 25 1
84 26 1
84 27 3
84 30 1
84 31 1
84 32 1
84 40 4
84 41 10
84 42 9
84 43 2
84 44 1
84 46 1
84 49 1
84 50 1
84 56 2
84 61 1
84 64 1
84 70 1
84 72 1
84 74 9
84 75 2
84 76 1
84 78 3
84 80 1
84 85 2
84 89 2
84 92 1
84 93 1
84 95 5
84 98 1
85 1 2
85 4 8
85 5 1
85 6 2
85 7 9
85 8 1
85 9 6
85 10 1
85 11 8
85 12 2
85 13 2
85 14 1
85 16 10
85 19 1
85 21 1
85 22 6
85 24 1
85 30 6
85 32 1
85 35 5
85 38 6
85 39 1
85 40 1
85 44 8
85 45 3
85 47 3
85 48 12
85 51 1
85 52 1
85 53 7
85 54 1
85 55 2
85 56 2
85 57 2
85 58 7
85 59 2
85 63 1
85 64 1
85 65 7
85 67 6
85 69 1
85 70 2
85 71 7
85 75 2
85 76 1
85 78 1
85 81 1
85 82 5
85 84 7
85 85 1
85 86 8
85 89 1
85 91 1
85 94 1
85 95 1
85 96 1
85 98 8
86 1 1
86 6 2
86 10 2
86 11 1
86 12 3
86 15 1
86 16 1
86 18 1
86 19 1
86 20 2
86 21 3
86 22 2
86 27 1
86 29 1
86 30 1
86 34 1
86 35 2
86 37 3
86 38 1
86 39 1
86 40 3
86 41 7
86 42 4
86 43 1
86 44 2
86 48 1
86 50 1
86 53 2
86 57 1
86 58 2
86 61 1
86 62 2
86 67 1
86 68 2
86 69 1
86 70 2
86 74 4
86 78 4
86 79 1
86 80 1
86 81 3
86 84 1
86 85 2
86 86 2
86 87 2
86 91 1
86 94 1
86 97 1
86 98 2
87 1 2
87 2 1
87 3 1
87 4 2
87 5 1
87 6 4
87 7 1
87 8 5
87 9 1
87 10 1
87 13 7
87 14 1
87 17 4
87 18 14
87 20 5
87 21 1
87 23 5
87 24 2
87 25 3
87 27 1
87 30 2
87 31 1
87 32 1
87 33 4
87 34 5
87 36 4
87 37 4
87 39 1
87 40 1
87 43 7
87 44 2
87 45 6
87 47 2
87 48 1
87 49 1
87 50 9
87 51 6
87 54 1
87 55 3
87 56 2
87 57 2
87 59 1
87 60 1
87 61 13
87 62 1
87 63 7
87 66 2
87 68 1
87 70 4
87 72 8
87 73 7
87 74 2
87 77 7
87 80 12
87 81 7
87 83 1
87 86 1
87 87 6
87 88 1
87 93 1
87 94 6
87 95 1
87 96 9
88 1 3
88 2 5
88 3 6
88 4 1
88 6 1
88 9 1
88 10 1
88 11 1
88 12 2
88 14 5
88 15 6
88 16 2
88 17 4
88 18 1
88 20 1
88 21 1
88 22 1
88 23 1
88 24 4
88 26 7
88 27 8
88 28 5
88 29 9
88 31 10
88 32 10
88 33 1
88 34 1
88 35 1
88 37 1
88 38 1
88 39 8
88 40 2
88 42 2
88 45 1
88 46 6
88 47 3
88 49 3
88 52 3
88 53 2
88 54 7
88 56 2
88 57 4
88 58 1
88 59 2
88 60 5
88 61 2
88 62 9
88 64 6
88 66 4
88 67 1
88 68 13
88 69 4
88 70 1
88 71 1
88 75 8
88 76 6
88 77 1
88 79 4
88 82 1
88 83 5
88 84 2
88 85 11
88 87 1
88 88 5
88 89 6
88 90 5
88 91 4
88 92 8
88 93 5
88 95 1
88 96 2
88 97 5
88 99 12
88 100 5
89 1 1
89 5 9
89 6 9
89 8 13
89 9 2
89 11 1
89 12 2
89 13 7
89 16 2
89 17 4
89 18 10
89 19 3
89 20 4
89 22 1
89 23 3
89 24 3
89 25 10
89 28 1
89 33 4
89 34 1
89 36 14
89 37 6
89 39 1
89 40 1
89 41 1
89 43 4
89 45 3
89 47 1
89 48 1
89 50 3
89 51 8
89 55 6
89 56 6
89 60 2
89 61 8
89 63 4
89 65 1
89 66 1
89 67 1
89 68 1
89 70 4
89 71 1
89 72 12
89 73 6
89 75 1
89 76 1
89 77 6
89 78 1
89 80 4
89 81 6
89 82 1
89 83 1
89 84 1
89 87 8
89 88 1
89 92 1
89 94 6
89 95 1
89 96 6
89 98 1
89 99 1
90 3 2
90 4 1
90 5 4
90 6 2
90 8 7
90 13 9
90 14 3
90 17 9
90 18 8
90 20 4
90 23 8
90 25 7
90 33 8
90 34 11
90 36 9
90 37 3
90 39 1
90 42 2
90 43 4
90 45 4
90 46 1
90 49 1
90 50 9
90 51 4
90 54 1
90 55 8
90 56 9
90 57 2
90 61 4
90 63 8
90 65 1
90 67 1
90 69 1
90 70 3
90 72 5
90 73 7
90 74 1
90 76 1
90 77 8
90 78 1
90 79 1
90 80 8
90 81 4
90 83 1
90 86 1
90 89 2
90 90 1
90 93 1
90 94 6
90 96 4
90 98 2
90 100 1
91 1 1
91 8 1
91 10 10
91 11 1
91 13 1
91 15 1
91 17 2
91 21 6
91 27 1
91 33 1
91 35 1
91 37 4
91 39 1
91 40 7
91 41 12
91 42 4
91 43 2
91 45 1
91 46 1
91 47 3
91 50 2
91 54 1
91 58 1
91 60 1
91 62 1
91 69 2
91 70 1
91 73 1
91 74 9
91 78 9
91 80 2
91 81 1
91 85 1
91 87 1
91 88 1
91 90 1
91 93 1
91 96 1
91 97 2
92 2 2
92 5 8
92 6 4
92 8 4
92 9 1
92 10 1
92 11 1
92 13 12
92 17 5
92 18 6
92 20 7
92 23 7
92 25 6
92 26 1
92 28 1
92 29 2
92 30 2
92 32 2
92 33 6
92 34 7
92 35 1
92 36 4
92 37 4
92 41 1
92 43 11
92 45 8
92 46 2
92 47 2
92 50 7
92 51 9
92 52 1
92 53 1
92 54 1
92 55 8
92 56 8
92 57 1
92 58 1
92 60 3
92 61 8
92 63 7
92 65 1
92 67 1
92 70 9
92 72 6
92 73 7
92 75 2
92 77 6
92 79 1
92 80 7
92 81 8
92 82 1
92 85 1
92 87 5
92 88 1
92 89 1
92 91 2
92 94 7
92 96 5
92 98 1
92 100 1
93 1 6
93 2 4
93 3 5
93 5 1
93 8 2
93 10 3
93 11 1
93 12 5
93 14 4
93 15 10
93 16 2
93 19 5
93 24 7
93 26 5
93 27 4
93 28 10
93 29 8
93 31 5
93 32 10
93 34 2
93 35 1
93 37 1
93 38 1
93 39 6
93 42 2
93 43 1
93 46 10
93 47 2
93 49 6
93 52 5
93 54 2
93 56 1
93 57 7
93 58 1
93 59 8
93 60 7
93 62 5
93 63 2
93 64 7
93 66 3
93 67 1
93 68 2
93 69 7
93 70 1
93 75 8
93 76 5
93 77 1
93 78 2
93 79 4
93 82 1
93 83 5
93 84 1
93 85 1
93 86 1
93 87 1
93 88 8
93 89 7
93 90 7
93 91 7
93 92 6
93 93 5
93 97 7
93 98 4
93 99 10
93 100 1
94 3 1
94 4 1
94 5 6
94 6 10
94 8 6
94 9 1
94 10 1
94 12 1
94 13 11
94 14 1
94 15 1
94 17 5
94 18 8
94 20 6
94 21 4
94 23 6
94 25 8
94 28 2
94 29 1
94 30 1
94 31 1
94 32 1
94 33 7
94 34 8
94 36 4
94 37 6
94 39 1
94 40 2
94 41 1
94 43 14
94 44 1
94 45 8
94 47 1
94 50 3
94 51 11
94 52 1
94 55 7
94 56 7
94 61 4
94 62 1
94 63 6
94 66 1
94 68 1
94 70 5
94 72 11
94 73 2
94 75 3
94 77 4
94 78 1
94 80 4
94 81 7
94 82 1
94 83 1
94 85 1
94 86 1
94 87 6
94 90 3
94 91 1
94 92 1
94 94 4
94 96 6
94 98 1
94 99 2
95 4 1
95 5 8
95 6 5
95 7 1
95 8 6
95 10 1
95 13 2
95 14 1
95 16 1
95 17 6
95 18 6
95 20 3
95 21 1
95 23 4
95 24 2
95 25 5
95 27 1
95 30 1
95 33 5
95 34 3
95 35 1
95 36 4
95 37 3
95 39 1
95 40 1
95 41 1
95 43 5
95 44 1
95 45 6
95 48 1
95 50 7
95 51 4
95 53 1
95 54 1
95 55 2
95 56 6
95 57 1
95 60 1
95 61 9
95 63 6
95 65 2
95 67 2
95 70 6
95 72 4
95 73 4
95 75 1
95 77 6
95 79 1
95 80 7
95 81 6
95 84 1
95 85 2
95 87 2
95 91 1
95 94 9
95 96 5
95 98 2
95 99 1
96 2 1
96 3 1
96 5 11
96 6 4
96 7 2
96 8 4
96 13 1
96 14 1
96 15 1
96 16 1
96 17 3
96 18 6
96 20 5
96 23 4
96 24 2
96 25 3
96 26 1
96 29 1
96 31 1
96 33 3
96 34 5
96 36 5
96 37 3
96 41 1
96 43 10
96 45 6
96 46 1
96 47 2
96 50 3
96 51 10
96 52 1
96 55 8
96 56 4
96 60 1
96 61 7
96 62 1
96 63 2
96 64 1
96 66 1
96 67 1
96 69 1
96 70 8
96 71 1
96 73 3
96 77 4
96 80 9
96 81 2
96 84 1
96 85 2
96 86 1
96 87 7
96 89 2
96 93 1
96 94 5
96 95 1
96 96 3
97 1 6
97 2 8
97 3 2
97 4 1
97 5 1
97 7 1
97 12 5
97 13 1
97 14 4
97 15 1
97 16 2
97 18 1
97 19 3
97 24 7
97 26 5
97 27 3
97 28 8
97 29 3
97 31 13
97 32 3
97 39 7
97 40 1
97 45 1
97 46 10
97 49 3
97 50 1
97 51 1
97 52 10
97 54 4
97 57 2
97 59 3
97 60 3
97 62 4
97 64 5
97 66 5
97 68 3
97 69 7
97 71 1
97 72 1
97 75 2
97 76 7
97 79 2
97 82 1
97 83 6
97 85 4
97 86 2
97 88 7
97 89 9
97 90 4
97 91 6
97 92 3
97 93 6
97 96 2
97 97 5
97 99 3
97 100 5
98 1 1
98 2 1
98 4 1
98 5 4
98 6 5
98 8 8
98 10 1
98 13 10
98 16 1
98 17 7
98 18 4
98 20 3
98 21 1
98 23 9
98 25 7
98 32 2
98 33 2
98 34 11
98 35 1
98 36 7
98 37 4
98 43 9
98 45 3
98 47 1
98 48 1
98 49 1
98 50 6
98 51 2
98 53 1
98 54 2
98 55 8
98 56 12
98 58 2
98 60 1
98 61 4
98 62 1
98 63 6
98 64 2
98 65 1
98 67 1
98 68 2
98 70 4
98 71 1
98 72 10
98 73 8
98 74 1
98 75 1
98 77 5
98 79 1
98 80 7
98 81 7
98 83 3
98 87 1
98 88 2
98 89 1
98 92 1
98 93 1
98 94 8
98 96 11
98 97 3
98 100 1
99 1 7
99 2 5
99 3 8
99 4 1
99 7 5
99 9 1
99 10 2
99 12 2
99 14 5
99 15 5
99 17 1
99 18 2
99 19 3
99 20 1
99 22 1
99 23 2
99 24 6
99 25 1
99 26 9
99 27 3
99 28 5
99 29 7
99 30 1
99 31 4
99 32 3
99 36 1
99 39 4
99 40 2
99 44 1
99 45 1
99 46 8
99 47 1
99 49 10
99 50 2
99 52 1
99 54 2
99 57 5
99 58 1
99 59 7
99 60 6
99 62 6
99 63 1
99 64 4
99 65 1
99 66 2
99 68 2
99 69 7
99 73 2
99 75 7
99 76 4
99 77 3
99 79 2
99 82 1
99 83 6
99 84 1
99 85 6
99 88 5
99 89 7
99 90 9
99 91 3
99 92 6
99 93 6
99 95 1
99 97 4
99 98 3
99 99 10
99 100 4
100 1 1
100 3 1
100 6 1
100 10 8
100 13 1
100 14 1
100 15 2
100 17 1
100 21 10
100 22 1
100 27 1
100 29 2
100 33 3
100 37 1
100 39 2
100 40 8
100 41 6
100 42 4
100 46 1
100 47 1
100 48 1
100 52 1
100 53 1
100 54 1
100 59 2
100 61 2
100 62 2
100 64 1
100 69 1
100 74 8
100 75 1
100 78 1
100 81 1
100 82 1
100 83 1
100 86 1
100 89 1
100 90 2
100 91 2
100 95 1
101 1 2
101 2 1
101 4 1
101 5 9
101 6 6
101 7 2
101 8 5
101 9 1
101 11 2
101 12 1
101 13 4
101 16 3
101 17 6
101 18 6
101 20 3
101 23 5
101 25 8
101 27 1
101 28 2
101 31 1
101 32 1
101 33 11
101 34 4
101 36 5
101 37 2
101 39 1
101 40 1
101 41 1
101 42 1
101 43 7
101 44 1
101 45 5
101 46 3
101 49 2
101 50 8
101 51 3
101 52 1
101 53 1
101 55 3
101 56 7
101 58 2
101 61 9
101 62 1
101 63 8
101 64 1
101 65 1
101 70 7
101 72 4
101 73 8
101 77 6
101 79 1
101 80 5
101 81 5
101 83 1
101 87 5
101 91 1
101 92 3
101 94 9
101 95 1
101 96 6
101 99 2
102 2 1
102 5 5
102 6 14
102 8 8
102 9 1
102 11 1
102 13 5
102 14 1
102 15 3
102 16 2
102 17 7
102 18 6
102 20 3
102 21 2
102 23 2
102 24 1
102 25 7
102 26 3
102 30 1
102 33 5
102 34 6
102 36 1
102 37 5
102 38 1
102 39 1
102 41 1
102 42 2
102 43 8
102 44 1
102 45 2
102 46 1
102 50 8
102 51 6
102 52 1
102 54 1
102 55 7
102 56 9
102 58 2
102 60 1
102 61 7
102 63 4
102 65 1
102 67 1
102 68 1
102 69 2
102 70 2
102 72 6
102 73 8
102 75 1
102 77 8
102 80 5
102 81 7
102 85 2
102 87 6
102 89 1
102 91 1
102 92 2
102 94 4
102 96 5
102 97 1
102 98 1
102 99 3
103 3 1
103 4 1
103 7 1
103 9 1
103 10 3
103 13 1
103 18 1
103 19 1
103 20 1
103 21 9
103 24 1
103 26 1
103 28 2
103 29 1
103 30 1
103 33 1
103 34 1
103 36 2
103 40 4
103 41 7
103 42 5
103 43 1
103 45 1
103 48 1
103 51 1
103 52 1
103 55 4
103 59 1
103 61 1
103 64 2
103 66 1
103 69 1
103 71 2
103 72 1
103 74 4
103 76 1
103 78 6
103 82 1
103 91 2
103 98 1
104 1 1
104 4 1
104 5 5
104 6 3
104 7 1
104 8 3
104 12 1
104 13 2
104 15 2
104 17 4
104 18 4
104 20 3
104 23 6
104 25 9
104 31 1
104 33 9
104 34 7
104 37 7
104 40 1
104 42 1
104 43 5
104 44 1
104 45 8
104 48 1
104 50 5
104 51 6
104 54 1
104 55 10
104 56 11
104 58 1
104 61 4
104 63 3
104 66 1
104 68 1
104 69 2
104 70 3
104 71 1
104 72 8
104 73 4
104 74 1
104 75 1
104 76 1
104 80 10
104 81 9
104 83 1
104 87 5
104 90 1
104 91 3
104 92 5
104 94 3
104 95 2
104 96 2
104 100 1
105 1 1
105 3 2
105 10 6
105 12 1
105 13 2
105 14 1
105 15 2
105 17 1
105 19 1
105 20 1
105 21 9
105 23 1
105 24 2
105 26 1
105 27 1
105 36 1
105 38 2
105 40 6
105 41 2
105 42 7
105 45 2
105 47 1
105 49 2
105 50 2
105 54 1
105 59 1
105 60 1
105 61 1
105 62 1
105 64 2
105 65 1
105 69 1
105 70 1
105 71 1
105 72 3
105 73 2
105 74 7
105 77 1
105 78 4
105 79 1
105 80 3
105 82 2
105 84 1
105 86 1
105 91 2
105 97 1
105 100 1
106 2 2
106 4 5
106 6 1
106 7 1
106 9 6
106 11 6
106 12 3
106 13 1
106 14 1
106 15 1
106 16 4
106 20 2
106 21 1
106 22 5
106 23 1
106 24 2
106 25 1
106 28 1
106 29 1
106 30 4
106 31 1
106 33 1
106 34 2
106 35 4
106 38 5
106 39 1
106 40 2
106 41 1
106 44 6
106 47 4
106 48 8
106 52 2
106 53 2
106 58 9
106 65 3
106 67 2
106 68 2
106 71 7
106 72 1
106 77 1
106 82 7
106 83 1
106 84 3
106 85 1
106 86 4
106 89 1
106 90 1
106 93 1
106 94 1
106 95 2
106 97 1
106 98 11
107 2 2
107 4 6
107 7 3
107 8 1
107 9 3
107 11 7
107 12 2
107 13 2
107 16 6
107 18 1
107 21 1
107 22 4
107 26 1
107 27 1
107 30 4
107 31 1
107 32 1
107 33 2
107 34 1
107 35 4
107 38 6
107 39 1
107 40 2
107 42 1
107 44 5
107 45 1
107 47 3
107 48 3
107 51 1
107 53 6
107 57 1
107 58 8
107 62 2
107 65 2
107 66 1
107 67 7
107 71 4
107 74 4
107 76 1
107 77 1
107 78 1
107 79 2
107 82 5
107 84 6
107 85 1
107 86 1
107 87 1
107 91 1
107 92 1
107 94 1
107 95 6
107 98 6
108 1 8
108 2 5
108 3 7
108 4 1
108 5 1
108 8 1
108 10 2
108 11 1
108 12 6
108 13 1
108 14 9
108 15 9
108 17 1
108 18 1
108 19 7
108 23 1
108 24 1
108 25 1
108 26 5
108 27 1
108 28 7
108 29 4
108 30 2
108 31 5
108 32 6
108 34 1
108 35 1
108 36 1
108 37 1
108 39 8
108 40 2
108 46 7
108 48 1
108 49 4
108 52 4
108 54 10
108 57 11
108 59 10
108 60 1
108 62 2
108 64 8
108 66 4
108 68 3
108 69 5
108 71 2
108 72 1
108 73 1
108 74 1
108 75 3
108 76 6
108 78 1
108 79 13
108 82 1
108 83 4
108 84 3
108 85 6
108 86 1
108 88 4
108 89 3
108 90 8
108 91 7
108 92 6
108 93 5
108 96 1
108 97 8
108 99 7
108 100 3
109 2 1
109 3 2
109 4 2
109 7 1
109 9 1
109 10 7
109 13 1
109 16 1
109 21 7
109 25 1
109 27 1
109 28 1
109 30 1
109 33 1
109 40 12
109 41 3
109 42 5
109 45 2
109 47 1
109 53 1
109 54 1
109 55 2
109 58 3
109 59 2
109 62 1
109 64 1
109 65 2
109 66 1
109 68 1
109 69 2
109 70 2
109 71 1
109 74 2
109 75 1
109 76 1
109 77 1
109 78 8
109 80 1
109 82 1
109 84 2
109 88 1
109 92 1
109 98 1
110 5 2
110 6 1
110 7 1
110 10 9
110 13 1
110 14 1
110 18 1
110 21 3
110 23 1
110 24 1
110 25 2
110 26 1
110 27 2
110 28 1
110 32 2
110 33 1
110 34 1
110 36 1
110 39 1
110 40 6
110 41 8
110 42 7
110 43 3
110 44 1
110 45 1
110 48 1
110 50 1
110 52 1
110 59 1
110 60 2
110 62 1
110 63 2
110 65 2
110 71 1
110 73 1
110 74 6
110 75 1
110 76 1
110 78 3
110 80 2
110 81 1
110 87 2
110 88 1
110 90 3
110 94 2
110 100 1
111 9 1
111 10 1
111 12 1
111 13 1
111 14 2
111 17 1
111 18 1
111 20 1
111 21 6
111 28 1
111 33 1
111 35 2
111 36 1
111 37 1
111 40 1
111 41 3
111 42 10
111 46 2
111 47 1
111 49 2
111 50 1
111 54 1
111 62 1
111 66 1
111 67 2
111 69 1
111 71 1
111 72 1
111 74 4
111 75 1
111 77 1
111 78 10
111 80 1
111 81 2
111 83 1
111 84 1
111 85 1
111 92 1
111 96 1
111 98 1
111 100 2
112 2 2
112 3 1
112 5 3
112 6 6
112 8 3
112 13 4
112 17 11
112 18 3
112 20 6
112 23 8
112 24 2
112 25 3
112 30 2
112 31 1
112 32 1
112 33 7
112 34 3
112 36 8
112 37 4
112 39 1
112 42 2
112 43 9
112 45 6
112 46 1
112 50 7
112 51 7
112 52 1
112 54 1
112 55 4
112 56 7
112 61 5
112 63 2
112 65 4
112 69 2
112 70 5
112 72 4
112 73 10
112 75 1
112 77 4
112 80 8
112 81 5
112 82 1
112 85 1
112 86 1
112 87 9
112 88 1
112 90 1
112 91 1
112 92 2
112 93 1
112 94 6
112 96 6
113 4 1
113 5 5
113 6 9
113 7 1
113 8 13
113 9 1
113 13 5
113 15 1
113 17 14
113 18 10
113 20 6
113 23 4
113 24 1
113 25 7
113 29 1
113 30 3
113 32 1
113 33 9
113 34 3
113 36 8
113 37 9
113 38 1
113 43 8
113 44 1
113 45 10
113 47 3
113 48 1
113 50 6
113 51 14
113 52 1
113 53 2
113 54 1
113 55 8
113 56 4
113 58 1
113 61 6
113 62 1
113 63 11
113 65 1
113 67 1
113 69 1
113 70 5
113 72 6
113 73 3
113 77 6
113 79 1
113 80 6
113 81 5
113 82 2
113 83 1
113 84 3
113 85 1
113 86 1
113 87 8
113 88 1
113 90 1
113 94 6
113 95 1
113 96 8
113 97 1
113 98 1
113 100 1
114 4 3
114 5 7
114 6 13
114 8 6
114 9 1
114 10 1
114 13 7
114 14 1
114 15 1
114 17 5
114 18 4
114 20 6
114 21 2
114 23 6
114 25 3
114 26 2
114 27 1
114 30 1
114 31 1
114 33 5
114 34 6
114 36 3
114 37 4
114 38 1
114 43 1
114 45 5
114 46 1
114 47 1
114 50 6
114 51 7
114 52 1
114 55 5
114 56 11
114 57 1
114 60 2
114 61 5
114 62 1
114 63 4
114 65 1
114 66 1
114 67 2
114 68 1
114 69 1
114 70 2
114 71 2
114 72 6
114 73 11
114 74 1
114 77 8
114 78 1
114 80 9
114 81 6
114 85 1
114 86 1
114 87 5
114 94 8
114 96 7
114 98 1
114 99 1
114 100 1
115 2 1
115 3 1
115 5 2
115 6 5
115 7 1
115 8 4
115 10 1
115 11 1
115 12 1
115 13 5
115 14 1
115 16 1
115 17 8
115 18 6
115 20 4
115 23 11
115 25 7
115 26 2
115 29 2
115 30 1
115 31 1
115 33 7
115 34 8
115 35 2
115 36 11
115 37 4
115 39 2
115 41 1
115 42 2
115 43 5
115 45 4
115 50 8
115 51 8
115 52 1
115 53 1
115 55 6
115 56 3
115 57 1
115 60 1
115 61 10
115 62 2
115 63 2
115 64 1
115 65 1
115 66 2
115 70 5
115 72 8
115 73 6
115 75 1
115 77 6
115 79 1
115 80 5
115 81 9
115 84 1
115 86 3
115 87 7
115 88 1
115 94 7
115 96 6
115 98 2
116 3 2
116 5 12
116 6 5
116 8 3
116 9 1
116 12 1
116 13 8
116 14 1
116 17 5
116 20 4
116 21 1
116 22 1
116 23 5
116 25 3
116 26 1
116 29 1
116 33 8
116 34 5
116 35 1
116 36 3
116 37 3
116 39 1
116 40 1
116 41 2
116 43 6
116 44 1
116 45 8
116 50 7
116 51 8
116 52 1
116 54 1
116 55 10
116 56 9
116 57 1
116 58 1
116 59 1
116 61 8
116 63 9
116 70 5
116 72 4
116 73 6
116 77 4
116 80 6
116 81 6
116 83 3
116 85 1
116 87 7
116 88 1
116 91 1
116 94 5
116 96 8
116 97 1
116 100 2
117 1 6
117 2 10
117 3 9
117 5 1
117 8 1
117 9 1
117 11 1
117 12 4
117 14 2
117 15 2
117 16 1
117 18 1
117 19 4
117 23 1
117 24 6
117 25 2
117 26 2
117 27 5
117 28 8
117 29 5
117 30 1
117 31 8
117 32 4
117 35 1
117 39 5
117 46 5
117 47 2
117 48 1
117 49 3
117 51 2
117 52 5
117 54 3
117 55 1
117 56 2
117 57 8
117 59 4
117 60 4
117 62 4
117 64 6
117 65 1
117 66 4
117 67 2
117 68 8
117 69 4
117 70 2
117 71 2
117 73 1
117 75 3
117 76 8
117 78 1
117 79 4
117 83 1
117 84 1
117 85 4
117 88 7
117 89 4
117 90 7
117 91 3
117 92 6
117 93 8
117 96 1
117 97 5
117 98 2
117 99 10
117 100 8
118 1 11
118 2 11
118 3 3
118 5 1
118 7 2
118 11 2
118 12 5
118 14 7
118 15 7
118 16 1
118 17 1
118 19 5
118 24 11
118 25 1
118 26 5
118 27 6
118 28 4
118 29 9
118 31 7
118 32 6
118 36 1
118 37 1
118 39 2
118 40 1
118 41 3
118 42 2
118 43 1
118 46 6
118 48 2
118 49 1
118 50 1
118 52 5
118 53 2
118 54 6
118 56 1
118 57 2
118 59 4
118 60 6
118 61 2
118 62 4
118 63 2
118 64 1
118 66 10
118 68 3
118 69 6
118 70 3
118 71 1
118 72 2
118 75 4
118 76 3
118 77 1
118 78 1
118 79 5
118 81 2
118 82 1
118 83 8
118 85 2
118 88 3
118 89 6
118 90 2
118 91 4
118 92 4
118 93 4
118 95 1
118 97 6
118 99 7
118 100 9
119 5 9
119 6 4
119 7 1
119 8 8
119 13 12
119 15 2
119 17 4
119 18 12
119 20 13
119 22 1
119 23 6
119 24 2
119 25 5
119 26 1
119 29 1
119 30 1
119 32 1
119 33 10
119 34 6
119 36 5
119 37 2
119 38 1
119 39 1
119 40 1
119 41 1
119 43 5
119 44 1
119 45 2
119 46 1
119 48 1
119 50 6
119 51 4
119 55 7
119 56 8
119 57 1
119 59 3
119 61 5
119 62 1
119 63 8
119 65 2
119 67 1
119 68 1
119 70 2
119 71 1
119 72 3
119 73 4
119 77 4
119 79 1
119 80 5
119 81 5
119 82 1
119 83 1
119 85 1
119 86 1
119 87 1
119 91 1
119 92 2
119 94 4
119 96 5
119 99 2
120 1 5
120 2 6
120 3 3
120 5 2
120 7 1
120 9 2
120 12 3
120 14 7
120 15 5
120 17 1
120 18 1
120 19 5
120 21 1
120 24 13
120 26 6
120 27 1
120 28 9
120 29 6
120 30 1
120 31 7
120 32 10
120 36 1
120 38 3
120 39 3
120 44 1
120 45 1
120 46 3
120 49 8
120 52 6
120 54 8
120 57 5
120 58 1
120 59 5
120 60 4
120 62 9
120 63 2
120 64 9
120 66 11
120 67 1
120 68 5
120 69 1
120 72 3
120 74 1
120 75 6
120 76 3
120 79 4
120 81 1
120 83 4
120 85 4
120 87 1
120 88 6
120 89 4
120 90 4
120 91 5
120 92 5
120 93 6
120 94 1
120 95 3
120 96 1
120 97 6
120 98 2
120 99 4
120 100 2
121 1 1
121 2 1
121 5 11
121 6 7
121 8 7
121 12 2
121 13 3
121 17 7
121 18 5
121 20 7
121 23 7
121 24 1
121 25 5
121 29 2
121 30 1
121 32 2
121 33 9
121 36 8
121 37 7
121 43 6
121 45 7
121 50 5
121 51 7
121 53 1
121 55 9
121 56 6
121 57 3
121 58 2
121 61 5
121 62 1
121 63 4
121 66 2
121 67 2
121 70 4
121 72 5
121 73 7
121 74 1
121 77 3
121 78 2
121 80 6
121 81 5
121 82 2
121 86 1
121 87 5
121 88 2
121 90 1
121 91 1
121 93 1
121 94 6
121 95 3
121 96 4
121 100 1
122 2 2
122 4 1
122 5 3
122 10 4
122 12 1
122 13 1
122 14 1
122 15 1
122 16 1
122 17 1
122 18 2
122 20 1
122 21 2
122 22 1
122 23 1
122 25 1
122 31 1
122 33 2
122 35 1
122 36 2
122 38 1
122 39 1
122 40 7
122 41 8
122 42 3
122 44 1
122 45 1
122 49 1
122 51 1
122 52 1
122 56 1
122 57 2
122 61 1
122 66 1
122 68 1
122 71 1
122 73 1
122 74 5
122 75 1
122 76 1
122 77 1
122 78 8
122 80 1
122 82 1
122 84 1
122 93 3
122 94 1
122 97 1
122 99 1
123 1 3
123 2 1
123 10 7
123 12 1
123 13 2
123 14 1
123 15 3
123 17 1
123 20 1
123 21 4
123 24 1
123 25 2
123 33 1
123 34 2
123 35 1
123 37 2
123 40 6
123 41 3
123 42 8
123 43 1
123 44 1
123 52 1
123 59 2
123 61 1
123 63 2
123 64 2
123 65 3
123 67 1
123 73 1
123 74 6
123 78 1
123 80 1
123 81 1
123 82 1
123 84 1
123 85 3
123 87 1
123 88 1
123 89 3
123 93 2
123 94 1
123 97 1
123 99 1
124 1 1
124 2 1
124 4 1
124 5 2
124 7 2
124 10 3
124 13 1
124 14 1
124 15 1
124 17 2
124 19 2
124 20 1
124 21 10
124 24 1
124 29 1
124 32 1
124 33 1
124 37 1
124 38 1
124 40 3
124 41 9
124 42 3
124 44 1
124 45 2
124 47 1
124 48 1
124 49 1
124 52 4
124 54 1
124 56 3
124 61 3
124 62 1
124 63 1
124 65 1
124 66 2
124 69 2
124 72 1
124 74 6
124 76 1
124 78 5
124 79 1
124 82 1
124 84 1
124 86 1
124 90 1
124 92 1
124 94 1
125 6 1
125 13 1
125 36 1
125 37 1
125 92 1
125 100 2
126 1 1
126 6 1
126 14 1
126 15 1
126 17 1
126 48 1
126 65 1
126 74 2
126 98 1
127 11 1
127 18 1
127 25 1
127 45 1
127 60 1
127 84 1
127 85 1
127 88 1
127 97 1
128 24 1
128 58 1
128 83 1
128 84 1
128 93 1
129 12 2
129 27 1
129 39 1
129 40 1
129 76 1
129 79 1
130 10 1
130 17 1
130 49 1
130 72 1
130 73 1
130 81 1
130 88 1
130 89 1
131 11 1
131 16 1
131 80 1
131 85 1
131 93 1
131 97 1
132 4 1
132 20 1
132 25 1
132 29 1
132 47 1
132 48 1
132 50 1
132 59 1
133 39 1
133 43 1
133 48 1
133 73 1
133 96 1
133 98 1
134 14 1
134 47 1
134 63 1
134 66 1
134 69 1
134 95 1
135 13 1
135 29 1
135 37 1
135 49 1
135 51 1
135 59 1
135 69 2
135 82 1
135 83 1
135 85 1
135 90 2
136 35 1
136 49 2
136 59 1
136 82 1
136 95 1
137 18 1
137 71 1
137 79 1
137 91 1
138 25 1
138 29 1
138 36 1
138 44 2
138 90 1
139 7 1
139 81 1
140 6 1
140 18 1
140 22 1
140 23 1
140 27 1
140 35 1
140 64 1
140 67 1
140 74 1
140 92 1
141 61 1
141 66 1
141 86 1
141 87 1
141 91 1
142 7 1
142 10 1
142 18 1
142 30 1
142 36 1
142 60 1
142 63 1
142 73 1
142 80 1
142 81 1
143 17 2
143 77 1
144 9 1
144 20 1
144 71 1
144 85 1
144 90 2
144 98 2
144 100 1
145 20 1
145 24 1
145 37 1
145 43 1
145 48 1
145 79 1
145 100 1
146 27 1
146 62 1
146 63 1
146 67 1
146 68 1
146 78 1
146 79 1
146 80 1
146 97 1
146 99 1
147 27 1
147 33 1
147 39 1
147 45 2
147 47 1
147 48 1
147 60 1
147 98 1
147 100 1
148 6 1
148 10 1
148 28 1
148 51 1
148 61 1
148 63 1
149 15 1
149 21 1
149 34 1
149 56 1
149 60 1
149 64 1
150 38 1
150 69 1
150 71 1
150 73 1
150 78 1
150 91 1
150 98 1
151 2 1
151 12 1
151 28 1
151 50 1
151 53 1
151 61 1
151 78 2
152 10 1
152 20 1
152 21 1
152 39 1
152 49 1
152 62 1
152 76 1
153 8 1
153 80 1
153 87 1
154 25 1
154 26 1
154 41 1
154 49 1
154 60 1
154 66 1
155 2 1
155 8 1
155 16 1
155 61 2
155 90 1
155 97 1
156 9 1
156 13 2
156 34 2
156 35 1
156 40 1
156 51 1
156 69 1
156 97 1
157 1 1
157 4 1
157 18 1
157 35 1
157 38 1
157 63 1
158 15 1
158 20 1
158 23 1
158 35 2
158 40 1
158 44 1
158 54 1
158 94 1
159 22 1
159 37 1
159 43 2
159 51 1
159 52 1
159 56 1
159 64 1
159 92 1
159 96 1
160 12 1
160 27 1
160 28 1
160 41 1
160 43 1
160 49 1
160 56 1
160 60 1
160 69 1
160 71 1
161 11 1
161 13 1
161 14 1
161 30 1
161 39 1
161 71 1
161 88 1
161 91 1
161 95 1
162 2 1
162 11 1
162 29 1
162 32 1
162 38 1
162 53 1
162 64 1
162 80 1
162 98 1
163 18 1
163 33 1
163 57 1
163 59 1
163 70 1
163 74 1
163 77 1
163 79 1
163 89 1
164 5 1
164 6 1
164 10 1
164 20 1
164 37 1
164 42 1
164 62 1
164 74 1
164 79 1
164 84 1
164 85 2
165 7 1
165 21 1
165 25 1
165 43 1
165 61 1
165 88 1
165 97 1
165 99 1
166 8 1
166 23 1
166 48 1
166 88 1
166 97 1
167 3 1
167 13 1
167 31 1
167 36 1
167 58 1
167 70 1
167 93 1
168 11 1
168 44 1
168 53 1
168 63 1
168 96 1
168 97 1
169 19 1
169 78 1
169 79 1
169 84 1
169 98 1
169 99 1
169 100 1
170 15 1
170 44 1
170 51 1
170 63 1
170 74 1
170 80 1
170 92 1
171 12 1
171 32 2
171 67 2
171 85 1
171 95 1
172 3 1
172 5 1
172 21 1
172 26 1
172 74 1
172 78 1
172 95 1
173 10 1
173 13 1
173 18 1
173 31 1
173 36 2
173 50 1
173 58 1
173 75 1
173 91 1
174 3 2
174 10 1
174 27 1
174 42 1
174 54 1
174 75 1
174 85 1
174 90 2
174 93 1
175 7 1
175 8 1
175 16 1
175 40 2
175 52 1
176 10 1
176 25 1
176 27 1
176 59 1
176 68 2
176 77 1
176 82 1
176 91 1
177 9 1
177 21 1
177 30 1
177 31 1
177 32 3
177 42 1
177 53 1
177 76 1
178 15 1
178 34 1
178 41 1
178 58 1
178 84 1
179 4 1
179 22 1
179 38 1
179 39 1
179 73 1
180 13 1
180 14 1
180 26 1
180 51 1
180 56 1
180 57 1
180 71 1
180 97 1
181 4 1
181 15 1
181 26 1
181 51 1
181 70 1
181 73 1
182 10 1
182 32 1
182 38 1
182 57 1
182 58 1
182 71 1
182 88 1
182 94 1
182 100 2
183 2 1
183 4 1
183 8 1
183 26 1
183 95 1
184 8 1
184 12 1
184 19 1
184 29 2
184 48 1
184 60 1
184 77 1
184 89 1
185 3 1
185 12 1
185 39 1
185 44 1
185 50 1
185 70 1
185 86 1
186 7 1
186 11 1
186 22 1
186 28 1
187 31 1
187 35 1
187 54 1
187 73 1
187 81 2
187 93 1
188 65 2
188 80 1
188 100 1
189 4 1
189 23 1
189 36 1
189 55 1
189 61 1
189 64 1
189 83 1
189 99 1
190 32 1
190 37 1
190 62 1
190 67 1
190 77 1
190 78 1
190 85 1
190 86 1
191 2 1
191 12 1
191 31 1
191 54 1
191 55 1
191 63 1
191 85 1
191 94 1
192 7 1
192 32 1
192 70 1
192 71 1
192 73 1
192 92 1
193 3 1
193 21 2
193 27 1
193 38 1
193 62 1
193 83 1
194 15 1
194 48 1
194 53 1
194 91 1
194 93 1
194 96 1
195 9 1
195 35 1
195 40 1
195 43 1
195 47 1
195 58 1
195 97 1
196 1 1
196 27 1
196 35 2
196 60 1
196 80 2
196 92 1
197 5 1
197 9 1
197 26 1
197 38 1
197 72 1
197 84 1
198 16 1
198 17 1
198 21 1
198 22 1
198 31 1
198 37 1
198 45 1
198 46 1
198 50 1
198 53 1
198 56 1
198 77 1
198 79 2
198 92 1
199 1 1
199 28 2
199 29 1
199 35 1
199 41 1
199 70 1
199 90 1
200 2 1
200 13 1
200 39 2
200 56 1
200 58 1
200 72 1
200 86 1
200 89 1
200 90 1
201 14 1
201 20 1
201 56 1
201 74 1
201 90 1
202 5 1
202 22 1
202 42 1
202 47 1
202 55 1
202 98 1
202 100 1
203 33 1
203 46 1
203 63 1
203 82 1
203 94 1
204 23 1
204 42 1
204 51 1
204 60 1
204 91 1
204 93 1
204 95 1
205 10 1
205 13 1
205 30 1
205 66 1
205 80 1
205 93 1
206 17 1
206 31 1
206 32 1
206 37 1
206 65 1
206 68 1
206 70 1
206 73 1
206 82 1
206 84 1
207 13 1
207 15 1
207 16 1
207 63 1
207 99 1
207 100 1
208 18 1
208 22 1
208 39 1
208 49 1
208 71 1
208 80 1
209 8 1
209 11 1
209 12 1
209 31 1
209 37 1
209 46 1
209 60 1
209 65 3
209 73 1
209 90 1
210 1 1
210 17 1
210 30 1
210 39 1
210 62 1
210 65 1
210 85 1
210 88 1
210 99 1
211 14 1
211 26 1
211 50 1
211 57 1
211 66 1
212 45 1
212 48 1
212 60 1
212 72 1
213 57 1
213 76 1
213 80 1
214 30 1
214 50 1
214 60 1
214 68 1
214 72 1
214 81 1
215 6 1
215 96 1
216 11 1
216 28 1
216 31 1
216 32 1
216 42 2
216 66 1
216 75 1
216 78 1
216 96 1
217 33 1
217 47 1
217 60 1
217 61 1
217 65 1
217 72 1
217 86 1
218 1 1
218 19 1
218 28 2
218 31 1
218 44 1
218 64 2
218 85 1
218 97 1
219 9 1
219 26 1
219 27 1
219 33 1
219 57 1
219 58 1
219 68 1
219 84 1
219 87 1
219 98 1
220 21 1
220 32 1
220 38 1
220 43 2
220 51 2
220 55 1
220 60 1
220 69 1
220 100 1
221 18 1
221 28 1
221 31 1
221 52 1
221 97 1
221 98 1
221 100 1
222 15 1
222 25 1
222 28 1
222 35 1
222 37 1
222 42 1
222 44 1
222 53 1
222 82 1
223 9 1
223 50 1
223 61 2
223 66 1
223 68 1
224 5 2
224 7 1
224 26 1
224 52 1
224 55 1
224 70 1
224 73 1
225 9 1
225 21 1
225 56 1
225 71 1
225 78 1
225 86 1
225 87 1
225 88 1
225 100 1
226 7 1
226 31 1
226 37 1
226 47 1
226 77 1
226 98 1
226 100 1
227 1 1
227 24 1
227 30 1
227 32 1
227 46 1
227 70 1
227 73 1
227 87 1
227 94 1
228 2 1
228 5 1
228 18 1
228 22 1
228 23 1
228 31 1
228 42 1
228 45 1
228 50 1
228 68 1
228 77 1
228 86 1
228 97 1
229 4 1
229 9 1
229 29 1
229 31 1
229 37 1
229 44 1
229 74 1
230 4 1
230 7 1
230 16 1
230 19 1
230 32 1
230 46 1
230 51 1
230 58 1
230 61 1
230 83 1
230 87 1
230 99 1
231 33 1
231 87 1
232 3 1
232 47 1
232 63 1
232 73 2
232 78 1
232 80 1
232 83 1
233 7 1
233 38 1
233 61 1
233 67 2
233 73 1
233 80 1
234 9 1
234 21 1
234 42 1
234 47 1
234 52 1
234 63 1
234 94 2
235 3 1
235 17 1
235 39 2
235 59 1
235 60 1
235 77 1
235 93 1
235 100 1
236 3 1
236 8 1
236 12 1
236 24 1
236 43 1
236 56 1
236 81 2
236 84 1
237 14 2
237 23 1
237 24 1
237 30 1
237 40 1
237 51 1
237 53 1
237 63 1
237 73 1
237 75 1
237 78 1
237 88 1
237 97 1
238 3 1
238 26 1
238 33 1
238 60 2
238 63 1
238 71 1
238 75 2
239 9 1
239 28 1
239 31 1
239 48 1
239 64 1
239 79 1
239 84 1
239 100 1
240 13 2
240 25 1
240 26 1
240 30 1
240 34 1
240 38 1
240 46 1
240 77 1
240 90 1
241 7 1
241 23 1
241 37 1
241 39 1
241 41 1
241 45 1
241 84 1
242 13 2
242 15 1
242 27 1
242 31 1
242 35 1
242 46 2
242 64 1
242 76 1
242 81 1
242 87 1
243 11 1
243 60 1
243 64 1
243 77 1
243 94 1
244 12 1
244 26 1
244 35 1
244 37 1
244 44 1
244 50 1
244 51 1
244 60 1
244 62 1
244 93 1
245 12 1
245 45 1
246 25 1
246 39 1
246 77 1
246 83 1
246 87 1
247 5 1
247 29 1
247 40 1
247 43 1
247 51 2
247 61 1
247 64 1
247 90 1
248 17 1
248 31 1
248 34 2
248 41 1
248 73 1
248 78 2
249 39 1
249 53 1
249 68 1
249 93 1
250 4 1
250 16 1
250 36 1
250 44 1
250 84 1
251 2 1
251 5 1
251 17 1
251 49 1
251 55 1
251 71 1
251 77 2
251 84 1
252 1 1
252 19 1
252 21 1
253 1 1
253 8 1
253 32 1
253 36 1
253 78 1
253 98 1
254 6 1
254 28 1
254 57 1
254 63 1
254 83 1
255 13 1
255 26 1
255 27 1
255 40 1
255 57 1
255 63 1
255 70 2
255 78 1
256 16 1
256 26 1
256 30 1
256 47 1
256 49 1
256 51 1
256 55 1
256 59 1
256 64 1
256 84 1
257 5 1
257 38 1
257 42 1
257 48 1
257 75 2
258 53 1
258 63 1
258 69 1
258 75 1
258 77 1
258 94 1
259 5 1
259 7 1
259 15 1
259 20 1
259 28 1
259 29 2
259 31 1
259 42 1
259 46 1
259 59 1
259 63 1
259 66 1
259 73 1
259 74 1
259 99 1
259 100 2
260 7 1
260 23 1
260 24 1
260 54 1
260 84 1
260 93 2
261 37 1
261 83 1
261 96 1
261 98 1
262 55 1
262 57 1
262 69 1
262 91 1
262 100 1
263 22 1
263 32 1
263 38 1
263 42 1
263 53 1
263 58 1
264 17 1
264 18 1
264 50 1
264 57 3
264 58 1
264 75 1
264 83 1
265 4 1
265 7 1
265 38 1
265 45 1
265 75 1
265 85 1
265 87 1
266 8 1
266 13 1
266 32 1
266 43 1
266 94 1
266 100 1
267 4 1
267 9 1
267 15 1
267 33 1
267 71 1
267 85 1
267 87 1
267 90 1
267 100 1
268 22 1
268 39 1
268 59 1
268 61 1
268 85 1
268 95 2
269 7 1
269 24 1
269 43 2
269 49 1
269 71 1
269 95 1
270 3 1
270 7 2
270 24 1
270 38 1
270 62 1
270 67 1
270 79 1
271 6 1
271 10 1
271 30 1
271 41 1
271 60 1
271 68 1
272 7 1
272 11 1
272 50 1
272 52 1
272 55 1
272 65 1
272 73 2
272 84 2
272 91 1
272 95 1
273 1 1
273 4 1
273 13 2
273 55 1
273 62 1
273 68 1
273 70 2
273 84 1
273 93 1
273 96 1
274 3 1
274 14 1
274 25 1
274 52 1
274 72 1
274 100 1
275 11 1
275 19 1
275 66 1
275 92 1
276 1 1
276 21 2
276 34 1
276 35 1
276 94 1
277 1 1
277 12 2
277 20 1
277 32 2
277 43 2
277 52 1
277 55 1
277 76 1
278 5 2
278 21 1
278 23 1
278 27 1
278 70 1
279 20 1
279 38 1
279 61 1
280 6 1
280 33 1
280 35 1
280 43 1
280 59 1
280 94 1
280 96 1
281 9 1
281 28 1
281 83 1
282 1 1
282 27 1
282 50 1
282 57 1
282 96 1
283 16 1
283 47 1
283 50 1
283 70 1
283 91 1
284 7 1
284 11 1
284 32 1
284 35 1
284 43 1
284 50 2
284 51 1
284 66 1
284 67 1
284 84 1
285 20 1
285 30 1
285 46 2
285 64 1
285 81 1
285 89 1
285 95 1
285 96 1
286 34 1
286 52 1
286 56 1
286 76 1
287 9 1
287 28 1
287 48 1
287 49 1
287 65 1
287 66 1
287 81 1
287 86 2
287 91 1
288 3 1
288 13 1
288 21 1
288 38 1
288 44 1
288 50 1
288 53 1
288 66 1
289 12 1
289 49 1
289 51 1
289 68 1
289 69 1
289 85 1
289 91 1
290 1 1
290 10 1
290 25 1
290 49 1
290 63 1
290 67 1
290 70 2
290 78 1
290 97 1
291 4 1
291 20 1
291 32 1
291 45 1
291 77 1
291 79 2
292 3 1
292 4 1
292 6 1
292 23 1
292 28 1
292 57 1
292 68 1
292 85 1
292 98 1
293 8 1
293 24 1
293 25 1
293 32 1
293 66 1
293 84 1
293 90 1
294 10 2
294 60 1
294 65 1
294 89 1
294 98 1
295 15 1
295 28 1
295 59 1
295 70 1
295 78 1
296 6 1
296 31 1
296 39 1
296 61 1
296 74 1
296 93 1
297 16 1
297 43 2
297 45 1
297 52 1
297 55 1
297 82 1
297 90 1
297 91 1
298 15 2
298 32 2
298 58 1
298 66 1
298 75 1
298 84 1
298 90 1
299 14 1
299 29 1
299 50 1
299 69 1
299 74 1
299 77 1
299 78 1
299 90 1
299 94 1
299 95 1
300 9 1
300 48 1
300 64 2
300 71 1
300 76 1
300 83 2
301 7 1
301 19 1
301 48 1
301 53 1
301 64 1
301 89 1
302 2 1
302 13 1
302 18 1
302 27 1
302 28 1
302 37 1
302 39 1
302 52 1
302 63 1
302 70 1
303 4 1
303 22 1
303 26 1
303 31 1
303 35 1
303 52 1
303 53 1
303 71 2
303 83 1
303 84 1
303 97 1
304 10 1
304 30 1
304 47 1
304 52 2
304 57 1
304 62 1
304 76 1
304 88 1
305 12 1
305 15 1
305 16 1
305 19 2
305 32 1
305 43 1
305 46 1
305 57 2
306 1 1
306 2 1
306 3 1
306 34 1
306 75 1
306 87 1
306 90 1
307 2 1
307 12 1
307 32 1
307 34 1
307 37 1
307 48 1
307 52 1
307 57 1
307 66 1
307 73 1
307 98 1
308 10 1
308 17 1
308 50 1
308 70 1
308 74 1
308 76 1
308 81 1
308 82 1
308 88 1
309 14 1
309 64 1
309 100 1
310 16 1
310 18 1
310 34 1
310 46 1
310 81 1
310 94 1
311 15 1
311 41 1
311 48 1
311 56 1
311 59 1
311 80 1
311 82 2
312 61 1
312 69 1
312 75 1
312 81 1
313 5 1
313 28 1
313 33 1
313 50 1
313 51 1
313 56 1
313 59 1
313 62 1
313 72 1
313 92 1
314 14 1
314 27 1
314 37 1
314 57 1
314 91 1
314 93 1
315 1 1
315 16 1
315 28 1
315 30 1
315 35 1
315 37 1
315 66 1
315 67 1
315 92 1
316 15 1
316 20 1
316 24 1
316 36 1
316 51 2
316 59 1
316 61 1
316 63 1
316 67 1
316 70 1
316 73 1
316 98 2
317 19 1
317 23 1
317 33 1
317 58 1
317 83 1
317 92 1
317 96 1
317 97 1
318 14 1
318 17 1
318 24 1
318 47 1
318 55 1
318 70 1
318 72 1
318 93 1
319 2 1
319 10 2
319 21 1
319 31 2
319 33 1
319 34 1
319 42 1
319 43 1
319 58 1
319 71 1
319 83 1
319 89 1
319 97 1
320 5 1
320 8 1
320 32 1
320 39 1
321 17 1
321 21 1
321 23 1
321 39 1
321 51 2
321 55 1
321 62 1
321 70 2
321 86 1
321 89 1
321 96 1
321 98 2
322 2 1
322 32 1
322 44 2
322 84 1
323 15 1
323 17 1
323 34 1
323 52 1
323 54 1
323 59 1
323 91 1
323 96 2
324 17 1
324 19 1
324 21 1
324 22 1
324 26 1
324 40 1
324 46 1
324 83 1
324 91 1
325 2 1
325 20 1
325 26 1
325 50 1
325 66 1
325 79 1
325 82 1
326 3 1
326 12 1
326 18 2
326 32 1
326 38 1
326 74 1
327 22 1
327 81 1
327 84 1
327 94 1
328 1 1
328 25 1
328 30 1
328 45 1
328 54 1
328 58 1
328 60 1
328 70 1
328 92 1
329 61 1
329 69 1
329 75 1
329 90 1
329 98 1
330 22 1
330 44 1
330 86 1
330 89 1
330 95 1
331 31 1
331 32 1
331 33 1
331 43 2
331 67 1
332 4 2
332 17 1
332 21 1
332 90 1
333 2 1
333 7 1
333 32 1
333 43 1
333 51 1
334 7 2
334 14 1
334 19 1
334 36 1
334 56 1
334 76 1
334 83 1
335 8 1
335 35 1
335 36 1
336 16 2
336 23 1
336 32 1
336 37 1
336 38 2
336 56 1
336 60 1
336 99 1
337 26 1
337 42 1
337 76 1
337 78 1
337 90 1
337 94 2
338 13 1
338 23 1
338 28 1
338 40 1
338 43 2
338 55 1
338 75 1
339 4 1
339 26 1
339 27 1
339 56 1
339 57 1
339 79 1
339 86 1
339 91 1
340 6 1
340 7 1
340 44 1
340 63 1
340 69 1
340 95 1
341 54 1
341 77 1
341 79 1
341 83 1
341 89 1
341 100 1
342 23 1
342 77 1
342 97 1
343 15 1
343 18 1
343 36 1
343 60 1
343 61 1
343 78 2
344 7 1
344 18 2
344 45 1
344 66 1
344 93 1
345 4 2
345 9 1
345 33 1
345 59 1
345 67 1
345 72 1
345 74 1
345 94 1
346 4 1
346 22 1
346 29 1
346 73 1
347 25 1
347 40 1
347 41 1
347 51 1
347 76 1
347 81 1
347 85 1
347 94 1
347 95 1
348 35 1
348 43 1
348 48 2
348 50 1
348 53 1
348 61 2
348 62 1
348 72 1
348 75 2
348 76 1
348 84 1
348 88 1
348 91 1
349 5 1
349 15 2
349 32 1
349 42 1
349 57 1
349 78 2
349 94 1
350 30 1
350 35 1
350 92 1
351 30 1
351 36 2
351 53 1
351 61 1
351 87 1
351 92 1
351 98 1
352 2 1
352 6 1
352 26 1
352 37 1
352 43 1
352 57 1
352 66 1
352 75 1
353 15 2
353 40 1
353 59 1
353 67 1
353 72 1
353 74 1
353 84 1
353 94 1
354 7 1
354 22 1
354 25 1
354 37 1
354 54 1
354 60 2
354 91 1
355 1 1
355 3 1
355 7 1
355 13 1
355 17 1
355 22 1
355 50 1
355 55 1
355 79 1
355 82 1
355 87 1
355 93 1
356 26 1
356 75 1
356 80 1
356 88 1
356 98 1
356 99 1
357 16 1
357 17 1
357 41 1
357 72 1
357 77 1
357 89 1
357 94 1
358 32 2
358 53 1
358 57 1
358 67 1
358 75 1
358 78 1
358 82 1
359 4 1
359 10 1
359 22 1
359 35 1
359 60 2
359 81 1
360 11 1
360 34 1
360 36 1
360 57 1
360 62 1
360 73 1
360 85 1
360 95 1
361 27 1
361 34 1
361 36 2
361 50 1
361 81 1
361 82 1
361 85 1
361 86 1
362 14 1
362 44 1
362 68 1
362 84 1
363 1 1
363 19 1
363 24 1
363 27 1
363 31 1
363 45 1
363 68 1
364 10 1
364 25 1
364 30 1
364 49 1
364 60 1
364 77 1
364 82 1
364 88 1
365 12 1
365 24 1
365 25 1
365 33 1
365 37 1
365 62 1
365 83 1
365 87 1
366 28 1
366 35 1
366 42 1
366 50 1
366 58 1
366 63 1
366 83 1
367 15 1
367 25 1
367 51 1
367 55 1
367 85 1
367 88 1
367 98 1
368 16 1
368 57 1
368 69 1
368 72 1
368 75 1
368 78 1
368 80 1
368 85 1
368 94 1
368 99 2
369 33 1
369 54 1
369 55 1
369 59 1
369 79 1
369 92 1
369 100 2
370 20 1
370 31 1
370 68 2
370 81 1
371 15 1
371 19 1
371 28 1
371 32 1
371 45 2
371 58 1
372 2 1
372 14 1
372 37 2
372 47 1
372 68 1
372 75 1
373 9 1
373 10 1
373 30 1
373 35 1
373 54 1
373 57 1
373 58 1
373 70 1
373 94 1
374 12 1
374 39 1
374 48 1
374 54 1
374 82 1
375 2 1
375 8 1
375 10 1
375 20 1
375 45 1
375 71 1
375 85 1
375 87 1
376 3 1
376 7 1
376 24 1
376 31 1
376 37 1
376 72 1
376 78 1
376 90 1
377 2 2
377 26 1
377 42 1
377 45 1
377 55 1
377 84 2
378 6 1
378 43 1
378 49 1
378 50 2
378 51 2
378 85 1
378 98 1
379 72 1
379 97 3
379 100 1
380 9 1
380 16 1
380 43 1
380 58 1
380 65 1
380 66 1
380 67 1
381 9 1
381 15 1
381 21 1
381 23 1
381 28 1
381 37 1
381 41 1
381 54 1
381 68 1
381 69 1
381 82 1
381 100 1
382 9 1
382 11 1
382 29 2
382 34 1
382 40 1
382 50 1
382 70 1
382 77 1
383 17 1
383 31 1
383 57 1
383 58 1
383 62 1
383 88 1
384 10 1
384 16 1
384 17 1
384 19 1
384 20 1
384 21 1
384 23 1
384 55 1
384 58 1
384 69 1
384 74 1
384 83 1
385 14 2
385 41 1
385 46 1
385 51 1
385 60 1
385 70 1
386 11 2
386 14 1
386 21 1
386 28 1
386 31 2
386 47 1
386 50 1
386 72 1
386 88 1
386 93 1
386 100 1
387 7 1
387 14 1
387 26 1
387 32 1
387 66 1
388 17 1
388 23 1
388 53 1
388 79 1
388 93 1
389 34 1
389 35 1
389 43 1
389 47 1
389 51 1
389 52 1
389 66 1
389 70 1
389 84 1
389 89 1
390 2 1
390 11 1
390 12 1
390 16 1
390 19 1
390 29 1
390 49 2
390 53 1
390 69 1
390 76 1
390 84 1
390 93 1
391 22 1
391 41 1
391 88 1
391 89 1
392 56 1
392 66 1
393 1 1
393 22 1
393 66 1
393 81 1
393 86 1
394 23 2
394 24 1
394 40 1
394 84 1
394 90 1
395 3 1
395 5 1
395 6 1
395 54 1
395 64 1
395 66 1
395 81 1
396 6 1
396 17 1
396 46 1
396 63 1
396 66 1
396 90 1
397 33 2
397 41 1
397 53 1
397 63 1
397 66 1
397 71 1
397 86 1
397 91 1
397 93 1
398 1 1
398 18 1
398 31 1
398 35 1
398 54 1
398 56 1
398 99 1
399 2 1
399 5 1
399 36 1
399 44 1
399 61 1
399 83 1
399 85 1
399 100 1
400 8 1
400 30 1
400 41 1
400 68 1
400 78 1
400 82 1
400 90 1
400 94 1
401 9 1
401 12 1
401 49 1
401 61 1
401 63 1
401 64 1
401 73 1
401 80 2
402 17 1
402 78 1
402 86 1
403 60 1
403 93 1
404 7 1
404 14 1
404 66 1
404 69 1
404 94 1
405 15 1
405 29 1
405 30 1
405 40 1
405 46 1
405 47 1
405 61 1
405 87 1
406 20 1
406 21 1
406 30 1
406 45 2
406 46 1
406 58 1
406 90 1
406 98 1
407 9 1
407 49 1
407 82 1
407 94 2
408 14 1
408 17 1
408 27 1
408 68 1
409 1 1
410 7 1
410 53 1
410 89 1
410 96 1
411 1 1
411 4 1
411 51 1
411 68 1
411 97 1
411 98 1
412 6 1
412 10 1
412 17 2
412 32 1
412 39 1
412 43 1
412 58 2
412 74 1
412 77 1
412 83 1
412 94 1
413 9 1
413 16 1
413 18 1
413 34 1
413 40 1
413 42 1
413 56 1
413 73 1
413 79 1
414 10 1
414 15 1
414 19 1
414 20 1
414 31 1
414 43 1
414 57 1
414 58 1
414 63 1
414 65 1
414 73 1
414 80 1
414 86 1
414 94 1
414 96 1
415 9 1
415 22 1
415 38 2
415 59 2
415 76 1
415 78 1
416 10 1
416 37 1
416 39 1
416 45 1
417 13 1
417 26 1
417 50 1
417 66 1
417 79 2
417 80 1
417 81 2
417 83 1
417 86 1
417 89 1
418 3 1
418 6 1
418 26 1
418 48 1
418 65 1
418 70 1
418 78 1
419 13 1
419 36 1
419 51 1
419 79 1
419 81 1
419 91 1
419 99 1
420 9 1
420 67 1
420 74 1
420 77 1
421 3 1
421 17 2
421 27 1
421 32 1
421 36 1
421 45 1
421 48 1
421 68 1
421 71 2
421 87 1
421 96 1
422 4 1
422 7 1
422 18 1
422 21 1
422 25 1
422 82 1
422 86 1
422 90 1
423 35 1
423 38 2
423 44 1
423 49 1
423 60 1
423 65 2
423 69 1
423 74 1
423 96 1
423 97 1
424 1 1
424 4 1
424 14 1
424 16 1
424 17 1
424 18 1
424 36 1
424 42 1
424 81 1
425 7 1
425 18 1
425 43 1
425 70 1
426 1 1
426 10 1
426 30 3
426 41 1
426 43 1
426 47 1
426 55 1
426 59 2
426 65 1
426 83 1
426 92 1
427 39 1
427 40 1
427 79 1
427 92 1
427 98 1
428 4 1
428 11 1
428 23 1
428 71 1
428 90 1
428 91 1
429 8 1
429 9 1
429 64 1
429 65 1
429 72 1
429 84 1
429 89 1
430 24 1
430 55 1
430 60 1
430 78 1
430 92 1
430 97 2
431 7 1
431 11 1
431 16 1
431 28 1
431 31 1
431 43 1
431 44 1
431 52 1
431 54 1
431 64 1
431 74 1
432 3 1
432 26 1
432 27 1
432 48 1
432 72 1
433 9 1
433 16 1
433 22 1
433 50 1
433 56 1
433 79 1
434 4 1
434 5 1
434 12 1
434 33 1
434 51 1
434 54 1
434 70 1
434 72 1
434 76 1
434 87 1
434 93 1
434 95 1
435 22 2
435 44 1
435 51 1
435 67 1
436 5 1
436 23 1
436 50 1
436 58 1
436 61 1
436 71 1
436 91 1
437 21 1
437 31 2
437 34 1
437 40 1
437 57 1
437 69 1
437 91 1
437 96 1
438 3 1
438 29 1
438 37 1
438 55 1
438 95 1
439 18 1
439 19 2
439 28 1
439 32 1
439 57 1
439 76 1
439 96 1
440 39 1
440 76 1
440 80 1
440 89 1
440 95 1
441 22 1
441 38 1
441 64 1
441 68 1
441 73 2
441 83 1
441 84 1
442 15 2
442 22 1
442 24 2
442 45 1
442 59 1
442 70 1
442 93 1
443 26 1
443 49 1
443 56 1
443 85 1
443 93 1
444 10 2
444 38 1
444 43 1
444 67 1
444 79 2
444 83 1
445 13 1
445 18 1
445 25 1
445 34 1
445 44 1
445 64 1
445 79 1
445 94 1
446 4 1
446 7 1
446 18 1
446 57 1
446 75 2
446 83 1
447 16 1
447 77 1
447 78 1
447 79 1
447 92 1
448 22 1
448 30 1
448 61 1
448 62 1
448 78 1
448 82 1
449 15 1
449 49 1
449 54 1
449 76 1
449 82 2
449 89 1
450 21 1
450 24 1
450 37 1
450 48 1
450 65 1
451 6 1
451 7 1
451 28 1
451 38 1
451 46 1
451 48 1
451 59 1
451 60 1
451 84 1
452 10 1
452 15 2
452 45 1
452 60 1
452 86 1
452 93 1
453 1 1
453 7 1
453 20 1
453 34 1
453 38 2
453 46 1
453 66 1
453 79 1
453 89 1
453 93 1
453 100 1
454 21 1
454 32 1
454 42 1
454 65 1
454 75 1
454 80 1
454 85 1
454 88 1
454 97 1
455 45 1
455 52 1
455 53 1
455 79 1
456 17 1
456 39 1
456 42 1
456 78 1
456 95 2
457 6 1
457 13 2
457 16 1
457 22 1
457 34 1
457 57 1
457 78 1
457 82 1
457 96 1
458 3 1
458 10 1
458 44 1
458 64 1
458 83 1
459 35 1
459 37 1
459 52 1
459 57 1
459 60 1
459 82 1
459 86 2
459 92 1
460 6 1
460 17 1
460 28 1
460 35 1
460 54 1
460 74 1
460 77 1
461 5 1
461 46 1
461 59 1
461 69 1
461 85 1
461 89 1
461 91 1
461 99 1
462 7 1
462 15 1
462 21 1
462 24 1
462 30 1
462 44 1
462 46 1
462 48 1
462 73 1
462 95 1
463 6 1
463 9 1
463 16 1
463 43 1
463 64 1
463 69 1
463 71 1
464 5 1
464 13 2
464 59 1
464 71 1
464 78 1
465 16 1
465 37 1
465 81 1
465 82 2
465 89 1
465 95 1
466 5 1
466 17 1
466 23 1
466 29 1
466 60 1
466 68 1
466 95 1
467 1 1
467 10 1
467 11 1
467 20 1
467 26 1
467 27 1
467 33 1
467 34 1
467 37 1
467 60 1
467 63 1
467 95 1
468 5 1
468 21 2
468 29 2
468 55 1
468 65 1
468 78 1
468 88 1
468 97 1
469 97 1
469 100 1
470 23 1
470 34 1
470 40 1
470 44 1
470 45 1
470 61 1
470 79 1
470 99 1
471 4 1
471 13 1
471 17 1
471 18 1
471 55 1
471 61 1
471 89 1
472 2 1
472 19 1
472 21 1
472 25 1
472 45 1
472 46 1
472 75 1
473 26 1
473 48 1
473 54 2
473 80 1
474 18 1
474 20 1
474 28 1
474 83 1
475 27 1
475 39 1
475 54 1
475 89 1
476 5 1
476 16 1
476 25 1
476 26 1
476 28 1
476 57 1
477 13 1
477 20 1
477 32 1
477 40 1
477 83 1
477 84 1
477 98 1
478 22 1
478 34 1
478 41 1
478 47 1
478 53 1
478 58 1
478 66 1
478 97 1
479 13 1
479 16 1
479 17 1
479 25 1
479 27 1
479 28 1
479 33 1
479 46 1
479 53 1
479 87 1
480 2 1
480 19 2
480 24 1
480 28 1
480 34 1
480 39 1
480 71 1
481 1 2
481 13 1
481 21 1
481 50 1
481 59 1
481 65 1
481 68 1
481 86 1
481 95 1
482 2 1
482 13 1
482 19 1
482 26 1
482 32 1
482 48 1
482 60 1
482 77 1
483 6 1
483 32 1
483 38 1
483 42 1
483 62 1
483 85 1
483 89 1
483 92 1
484 1 1
484 5 2
484 6 1
484 18 1
484 25 1
484 69 2
484 75 1
484 81 1
484 85 1
484 86 1
484 88 2
484 91 2
485 19 1
485 68 1
485 73 1
485 90 1
485 98 1
486 3 1
486 9 1
486 32 1
486 36 1
486 40 1
486 45 1
486 54 2
486 59 1
486 65 1
486 70 1
486 72 1
486 74 1
486 87 1
486 99 1
487 2 1
487 18 1
487 26 1
487 28 1
487 47 1
487 57 1
487 79 1
487 97 1
488 6 1
488 14 1
488 42 1
488 44 1
488 52 2
488 58 1
488 61 1
488 99 1
489 21 1
489 26 1
489 29 1
489 37 1
489 42 1
489 45 1
489 55 1
489 61 1
489 79 1
489 93 2
490 6 1
490 25 1
490 34 2
490 44 1
490 46 1
490 58 1
490 61 1
490 65 1
490 66 1
490 96 1
491 44 1
491 59 1
491 60 1
491 67 1
491 69 1
491 94 1
492 14 1
492 27 1
492 33 1
492 45 1
492 48 1
492 56 1
492 57 1
492 76 1
492 77 1
492 80 1
493 22 1
493 42 2
493 86 1
493 97 1
493 100 1
494 4 1
494 13 2
494 26 2
494 32 1
494 45 1
494 52 1
494 61 1
494 72 1
494 83 2
494 94 2
495 31 1
495 38 1
495 54 1
496 52 1
496 62 1
496 73 1
497 11 1
497 28 1
497 39 1
497 43 1
497 48 1
497 51 1
497 53 1
497 54 1
497 95 1
498 38 1
498 41 1
498 44 1
498 74 1
498 83 1
498 85 2
498 91 1
499 14 1
499 54 1
499 58 1
499 71 1
499 83 1
499 96 1
500 6 1
500 15 1
500 29 1
500 33 1
500 44 1
500 57 2
500 62 1
500 65 2
500 86 1
500 95 1
501 25 1
501 88 1
502 4 1
502 27 1
502 29 1
502 45 2
502 48 1
502 73 2
502 100 1
503 2 1
503 43 1
503 52 1
503 63 1
503 86 1
503 95 1
504 15 1
504 36 1
504 55 1
504 65 1
504 82 1
504 90 1
504 93 1
505 2 1
505 4 1
505 51 1
505 56 1
505 58 1
505 67 1
505 78 1
505 85 1
506 5 1
506 16 1
506 42 1
506 57 1
506 74 1
506 89 1
507 16 1
507 23 1
507 34 1
507 35 1
507 46 1
507 50 1
507 64 1
507 68 2
508 9 1
508 25 1
508 28 1
508 41 1
508 44 1
508 58 1
508 79 1
508 80 1
509 12 1
509 14 1
509 16 1
509 18 1
509 23 2
509 26 1
509 29 1
509 55 1
509 83 1
509 99 2
510 16 1
510 20 1
510 29 1
510 48 1
510 54 1
510 82 1
511 20 1
511 22 1
511 26 1
511 36 1
511 50 1
511 58 2
511 67 1
511 69 1
511 74 1
512 23 2
512 32 1
512 40 1
512 46 1
512 54 1
512 59 1
512 63 1
512 66 1
512 91 1
512 92 1
512 100 1
513 17 2
513 27 1
513 42 2
513 49 1
513 53 1
513 61 1
513 74 1
513 82 1
514 10 1
514 31 1
514 36 1
514 38 1
514 43 1
514 57 1
514 79 1
515 11 1
515 13 1
515 45 1
515 46 1
515 63 1
516 12 1
516 37 1
516 49 1
516 50 1
516 52 2
516 54 1
516 69 1
516 71 1
516 83 2
516 92 1
516 95 1
516 100 1
517 36 1
517 44 1
517 51 2
517 70 1
517 91 1
518 30 1
518 31 1
518 36 1
518 43 1
518 60 2
518 66 1
518 68 1
518 84 1
518 95 1
519 8 1
519 26 1
519 30 1
519 66 1
519 83 1
519 88 1
519 89 1
520 7 1
520 19 1
520 45 1
520 67 1
520 80 1
521 1 1
521 7 1
521 48 1
521 69 1
521 77 1
521 85 1
521 98 2
522 7 1
522 15 1
522 25 1
522 33 1
522 41 1
522 44 1
522 67 1
523 18 1
523 20 2
523 27 1
523 32 1
523 48 1
523 49 1
524 11 1
524 12 1
524 14 1
524 38 1
524 40 1
524 41 1
524 49 1
524 68 1
525 4 1
525 13 2
525 38 2
525 47 1
526 14 1
526 43 1
526 55 1
526 80 2
526 89 1
527 11 1
527 13 2
527 32 1
527 33 1
527 40 1
527 46 1
527 67 1
527 70 1
528 17 2
528 32 1
528 48 1
528 51 1
528 65 1
528 80 1
528 92 1
529 1 1
529 8 1
529 16 1
529 33 1
529 66 1
529 85 1
529 89 1
530 6 1
530 13 1
530 15 1
530 28 1
530 32 1
530 66 1
530 70 1
530 83 1
530 98 1
531 5 2
531 13 1
531 17 1
531 29 1
531 39 1
531 40 1
531 61 1
531 66 1
531 83 1
531 85 1
532 4 2
532 39 1
532 41 1
532 47 1
532 62 1
532 67 1
532 74 1
532 79 1
532 81 2
532 87 1
533 27 1
533 31 1
533 66 1
533 70 1
533 80 1
533 84 1
534 7 1
534 29 1
534 43 1
534 66 1
534 92 1
534 96 2
535 23 2
535 36 1
535 65 1
536 15 1
536 28 1
536 53 2
536 57 1
536 58 1
536 68 1
537 37 1
537 51 1
537 56 1
537 58 1
537 63 1
537 92 1
537 95 1
538 14 1
538 17 1
538 26 1
538 47 1
538 48 1
538 57 2
538 60 1
538 81 1
538 87 1
538 93 1
539 5 1
539 6 1
539 11 1
539 14 1
539 27 1
539 37 2
539 45 1
539 59 1
539 60 1
539 81 1
540 24 1
540 31 1
540 34 1
540 39 1
540 44 1
540 53 1
540 59 1
541 24 1
541 37 1
541 41 1
541 46 1
541 57 1
541 85 1
542 6 1
542 16 1
542 77 1
542 84 1
542 97 1
543 4 1
543 31 1
543 46 2
543 52 1
543 65 1
543 82 2
543 87 1
544 14 1
544 42 1
544 61 1
544 75 1
545 32 1
545 38 1
545 46 1
545 53 1
545 60 2
545 63 1
545 69 1
545 83 1
546 19 1
546 64 1
546 73 2
546 95 1
547 1 1
547 8 2
547 10 1
547 36 1
547 56 1
547 72 1
547 75 1
547 85 1
547 86 1
547 95 1
547 98 1
548 29 1
548 33 1
548 34 1
548 56 1
548 73 1
548 83 1
549 47 1
549 93 1
550 2 3
550 8 1
550 12 1
550 20 1
550 21 1
550 59 2
550 84 1
551 4 1
551 35 1
551 38 1
551 69 1
551 81 1
551 83 1
552 5 1
552 33 1
552 42 1
552 45 1
552 46 1
552 60 1
552 67 1
552 75 1
552 80 1
552 81 1
553 2 1
553 13 1
553 49 1
553 55 1
553 68 1
553 86 1
553 96 1
554 6 1
554 13 1
554 39 1
554 42 1
554 43 1
554 51 1
554 57 1
554 67 1
554 89 1
555 7 1
555 16 1
555 19 1
555 23 1
555 51 1
555 77 1
555 78 1
556 3 1
556 27 1
556 54 1
556 56 1
556 63 1
556 72 1
556 73 1
556 74 2
556 84 1
556 94 1
557 4 1
557 34 1
557 37 2
557 39 2
557 55 1
557 89 1
558 1 1
558 14 1
558 38 2
558 53 1
558 65 1
558 83 2
559 21 1
559 23 1
559 31 2
559 75 1
559 78 1
559 85 1
559 97 1
559 99 2
560 29 1
560 46 1
560 52 2
560 99 1
561 18 1
561 35 1
561 49 1
561 72 1
561 79 1
561 87 1
561 94 1
562 27 1
562 28 1
562 58 1
562 61 1
562 73 1
562 86 1
562 88 1
563 19 1
563 22 1
563 26 1
563 42 2
563 45 1
563 50 1
563 52 1
563 71 1
563 73 1
563 81 1
564 13 1
564 41 1
564 72 1
564 90 1
565 23 1
565 42 1
565 49 1
565 58 1
565 97 1
566 30 1
566 34 1
566 36 1
566 37 1
566 44 1
566 55 1
566 76 1
566 79 1
566 92 1
567 4 1
567 19 1
567 26 1
567 45 2
567 54 1
567 65 1
567 73 1
567 78 1
567 81 1
567 82 1
567 86 1
567 89 1
568 18 1
568 34 1
568 50 1
568 75 1
568 91 1
568 96 1
569 2 1
569 9 1
569 23 1
569 32 1
569 36 1
569 46 1
569 65 1
569 68 1
569 83 1
569 88 1
569 95 1
570 5 1
570 16 1
570 30 1
570 57 1
570 97 1
571 30 1
571 100 2
572 1 1
572 2 1
572 11 1
572 22 1
572 34 1
572 45 1
572 50 1
572 53 1
572 56 1
572 65 1
572 67 1
572 85 1
573 1 1
573 90 1
574 6 1
574 12 1
574 13 1
574 15 1
574 45 1
574 52 1
574 54 1
574 61 1
574 80 1
574 88 1
574 92 1
574 100 1
575 22 1
575 40 1
575 42 1
575 43 1
575 50 1
575 65 1
576 24 1
576 37 1
576 44 1
576 64 1
576 77 1
576 82 1
576 84 1
576 100 1
577 9 1
577 17 1
577 23 1
577 25 1
577 55 1
577 69 1
577 79 1
577 86 1
578 10 1
578 14 1
578 27 1
578 32 1
578 35 1
578 48 1
578 61 1
578 65 1
578 75 3
578 88 1
579 6 1
579 11 3
579 49 1
579 57 1
579 62 1
579 68 1
579 76 1
579 77 1
579 92 1
580 22 1
580 45 1
580 47 1
580 60 1
580 65 1
580 87 1
580 95 1
581 30 1
581 37 1
581 43 1
581 45 1
581 46 1
581 52 1
581 66 1
581 76 1
581 94 1
582 27 1
582 52 1
582 60 1
582 75 1
582 85 1
582 99 1
583 17 1
583 48 1
583 50 1
583 56 1
583 61 1
583 80 1
583 87 1
583 89 1
583 100 1
584 5 1
584 16 1
584 41 1
584 76 1
585 16 1
585 19 1
585 21 1
585 28 2
585 78 1
585 84 1
585 93 1
585 94 1
586 1 1
586 7 1
586 12 1
586 32 1
586 39 1
586 62 1
586 78 1
587 27 1
587 38 1
587 95 1
588 18 1
588 37 1
588 65 1
588 97 2
589 47 1
589 84 1
589 98 1
589 99 1
590 37 1
590 44 1
590 51 1
590 60 1
590 65 1
590 70 1
590 87 1
591 1 1
591 22 1
591 27 1
591 60 1
591 62 1
591 66 1
591 76 1
591 93 1
591 98 1
592 2 1
592 4 1
592 9 1
592 33 1
592 42 2
592 50 1
592 51 1
592 66 2
592 98 1
593 10 1
593 65 1
593 68 1
594 10 1
594 11 1
594 20 1
594 25 1
594 54 1
594 56 1
594 63 1
594 64 1
594 91 1
595 4 1
595 19 1
595 21 1
595 24 1
595 41 1
595 58 1
595 61 1
595 65 1
595 95 1
595 97 1
596 14 1
596 26 1
596 40 1
596 42 1
596 58 1
596 60 1
596 70 1
596 95 1
596 99 1
596 100 1
597 1 1
597 11 1
597 12 1
597 27 1
597 37 1
597 52 1
597 65 1
597 85 1
598 17 1
598 30 1
598 37 1
598 55 1
598 62 1
599 11 1
599 15 1
599 17 1
599 25 1
599 28 2
599 32 1
599 54 1
599 93 1
599 98 1
600 7 1
600 25 1
600 68 1
600 69 1
600 72 1
600 75 2
600 85 3
601 18 1
601 27 1
601 37 1
601 46 1
601 54 1
601 60 1
601 65 1
601 93 1
601 97 1
602 15 1
602 16 2
602 19 1
602 21 1
602 44 1
602 75 1
602 78 1
602 90 2
602 91 1
603 1 1
603 49 1
603 56 1
603 65 1
604 18 1
604 55 1
604 64 2
604 69 1
604 71 1
604 91 1
604 96 1
605 1 1
605 3 1
605 53 1
605 76 2
606 7 1
606 8 1
606 45 1
606 61 1
606 65 1
606 99 1
607 64 1
607 70 1
607 77 1
607 81 1
607 97 1
608 31 1
608 71 1
608 83 1
608 85 1
608 87 1
609 7 1
609 47 1
609 52 1
609 54 1
609 69 1
609 72 1
609 83 1
609 93 1
609 95 1
609 97 1
610 3 1
610 19 1
610 27 1
610 32 1
610 37 1
610 39 2
610 54 1
610 68 1
610 97 1
611 1 1
611 3 1
611 10 1
611 80 1
611 82 1
611 84 1
611 87 1
612 16 1
612 29 1
613 11 1
613 19 1
613 37 2
613 48 1
613 56 1
613 65 3
613 90 1
613 100 1
614 6 1
614 16 1
614 37 1
614 89 1
614 92 1
615 2 2
615 63 1
615 68 1
615 79 2
615 90 1
615 92 1
616 7 1
616 14 1
616 18 2
616 43 1
616 45 1
616 47 1
616 56 1
616 66 1
616 70 1
616 77 1
616 79 1
616 85 1
616 97 1
617 4 1
617 7 1
617 12 1
617 24 1
617 34 1
617 41 1
617 68 1
618 13 1
618 14 1
618 24 2
618 35 1
618 37 1
618 41 1
618 48 1
618 57 1
618 59 1
618 60 1
618 85 1
619 34 1
619 59 1
619 60 1
619 66 1
619 95 1
620 11 1
620 12 1
620 14 1
620 15 1
620 24 1
620 25 1
620 31 1
620 34 1
620 44 1
620 49 1
620 56 1
620 59 1
620 73 1
620 77 1
620 79 1
621 1 1
621 21 1
621 30 1
621 36 1
621 46 1
621 55 1
621 66 1
621 71 1
621 77 1
621 82 1
621 99 1
622 6 1
622 9 1
622 21 1
622 30 1
622 40 1
622 41 1
622 46 1
622 75 1
622 76 1
622 88 1
623 23 1
623 26 1
623 27 1
623 48 1
623 53 1
623 74 1
623 77 1
623 88 1
623 91 1
624 4 1
624 41 1
624 43 1
624 55 1
624 59 1
624 62 1
624 81 1
624 88 2
625 18 1
625 22 1
625 23 1
625 66 1
625 92 1
626 17 1
626 18 1
626 42 1
626 46 1
626 52 1
626 58 1
626 62 1
626 76 2
626 88 1
626 95 1
627 30 1
627 38 1
627 45 1
627 52 1
627 60 1
627 68 1
627 72 1
627 85 1
627 100 1
628 2 1
628 7 1
628 29 1
628 33 1
628 54 1
628 92 1
628 93 1
628 97 1
629 30 1
629 36 1
629 75 1
629 90 1
629 91 1
629 96 1
630 6 1
630 16 1
630 19 1
630 21 1
630 25 1
630 26 2
630 27 1
630 31 1
630 34 1
630 44 1
630 57 1
630 71 1
630 81 1
630 96 1
631 2 1
631 19 1
631 22 1
631 35 1
631 46 1
631 72 2
631 73 1
631 76 1
631 80 1
631 84 1
631 91 1
632 44 1
632 57 1
632 78 1
633 17 1
633 38 1
633 63 1
634 27 1
634 66 1
634 79 1
634 87 1
635 22 1
635 45 1
635 67 1
635 72 1
635 85 1
636 3 1
636 19 1
636 35 2
636 78 1
636 87 1
637 12 1
637 25 2
637 28 1
637 29 1
637 34 1
637 42 1
637 83 1
637 92 1
637 94 1
637 99 1
638 18 1
638 19 1
638 52 1
638 83 1
638 84 1
639 35 1
639 54 1
640 12 1
640 45 1
640 84 1
640 100 1
641 8 1
641 41 1
641 47 1
641 50 1
641 51 1
641 54 1
641 67 1
642 7 1
642 10 1
642 13 2
642 17 1
642 24 1
642 55 1
642 57 1
642 68 1
642 91 1
643 45 1
643 52 1
643 57 1
643 62 1
643 69 1
644 28 2
644 48 1
644 59 1
644 69 1
644 86 1
645 29 1
645 30 1
645 79 1
646 2 1
646 7 1
646 18 2
646 26 1
646 63 2
646 74 1
646 92 1
646 94 2
647 12 1
647 80 1
647 81 2
647 98 1
647 99 1
648 23 1
648 33 1
648 40 1
648 56 1
648 63 1
648 85 1
649 62 1
649 66 1
649 79 2
649 87 1
650 36 1
650 60 1
650 86 1
650 94 1
650 96 1
650 99 1
651 1 1
651 3 1
651 49 1
651 55 1
651 84 1
651 85 1
652 39 1
652 64 1
653 31 1
653 39 1
653 95 1
653 96 1
654 11 1
654 16 1
654 24 1
654 31 1
654 32 1
654 60 1
654 74 1
654 88 1
655 59 1
655 73 1
656 28 1
656 39 2
656 49 1
656 54 1
657 15 1
657 18 1
657 65 1
657 83 1
657 94 1
657 98 1
658 5 1
658 39 1
658 43 1
658 53 1
658 86 1
658 88 2
659 20 1
659 39 1
659 70 1
659 80 1
659 81 2
659 90 1
660 21 2
660 22 1
660 29 1
660 32 1
660 57 1
660 70 1
660 72 2
660 97 1
661 15 2
661 33 1
661 43 1
661 47 1
661 88 1
661 92 1
661 94 1
662 3 1
662 20 1
662 25 1
662 34 1
662 35 1
662 45 1
662 46 1
662 65 1
662 76 1
662 99 1
663 2 1
663 15 1
663 20 1
663 48 1
663 60 1
664 20 1
664 30 1
664 37 1
664 42 1
664 45 1
664 54 1
664 57 1
664 60 1
664 68 1
664 87 1
665 9 1
665 10 1
665 17 1
665 33 1
665 35 1
665 47 1
665 48 1
665 66 1
665 86 1
665 89 1
666 22 1
666 24 1
666 25 1
666 40 1
666 67 1
666 68 1
666 69 1
666 72 1
666 84 1
667 2 1
667 11 1
667 14 1
667 24 1
667 27 1
667 35 1
667 36 1
667 42 1
667 53 1
667 54 1
667 60 1
667 61 1
667 63 1
667 71 1
667 86 1
668 19 1
668 40 1
668 47 1
668 50 1
668 61 1
668 63 1
668 77 1
668 83 1
668 86 1
668 90 1
668 96 1
669 20 1
669 40 1
669 42 1
670 11 1
670 12 1
670 44 1
670 50 1
670 75 1
670 76 1
670 88 1
671 4 1
671 6 1
671 20 1
671 45 1
671 47 1
671 64 1
671 81 1
671 94 1
672 7 1
672 29 1
672 45 1
672 60 1
672 69 1
672 70 1
672 72 1
672 90 1
672 95 1
673 19 1
673 25 1
673 33 1
673 41 1
673 73 1
673 89 1
673 94 1
674 4 1
674 38 1
674 44 1
674 46 1
674 80 1
675 8 1
675 13 1
675 18 1
675 59 1
675 62 2
675 76 1
675 97 1
676 39 1
676 64 1
676 76 1
676 89 1
676 92 1
676 93 1
676 94 1
677 41 1
677 61 1
678 8 1
678 10 1
678 18 1
678 25 1
678 35 1
678 36 1
678 41 1
678 57 1
678 63 1
678 79 1
678 82 1
679 2 1
679 15 1
679 17 1
679 25 1
679 36 1
679 68 1
679 73 1
679 91 1
680 1 1
680 12 1
680 18 1
680 19 2
680 21 1
680 24 1
680 64 1
680 67 1
681 7 1
681 17 1
681 18 1
681 22 1
681 37 1
681 52 1
681 79 1
681 92 1
682 9 1
682 14 1
682 33 1
682 41 1
682 47 1
682 48 1
682 59 1
683 9 1
683 71 1
683 86 1
684 1 1
684 10 1
684 33 1
684 82 1
685 4 1
685 16 1
685 79 1
686 6 1
686 10 1
686 40 1
686 57 1
686 72 1
686 92 1
687 1 1
687 3 1
687 54 1
687 83 1
688 1 1
688 3 1
688 5 1
688 10 1
688 29 1
688 42 1
688 55 1
688 66 1
688 83 1
688 92 1
688 98 1
689 27 2
689 84 3
689 85 1
689 87 1
690 1 1
690 19 1
690 33 1
690 40 1
690 58 1
690 82 1
691 1 1
691 19 1
691 30 1
691 35 1
691 55 1
692 10 1
692 16 2
692 25 1
692 33 1
692 41 1
692 82 1
693 41 2
693 47 1
693 75 1
693 81 2
694 6 1
694 14 1
694 19 1
694 41 1
694 97 1
695 2 1
695 44 1
695 67 1
695 78 1
695 99 1
696 2 1
696 15 1
696 18 1
696 27 1
696 32 1
696 40 1
696 43 1
696 53 1
696 56 1
696 57 1
696 89 1
696 96 1
696 100 1
697 3 1
697 40 1
697 59 1
697 79 1
697 97 1
698 30 2
698 35 1
698 46 1
698 47 1
698 70 1
698 83 1
698 85 1
698 95 1
699 9 1
699 14 1
699 28 1
699 30 1
699 37 1
699 73 1
699 86 2
700 14 1
700 15 1
700 19 1
700 23 1
700 37 1
700 41 1
700 59 1
701 14 1
701 15 1
701 23 1
701 24 1
701 29 1
701 30 1
701 54 1
701 56 1
701 66 1
701 88 1
701 94 1
701 98 1
702 6 1
702 21 1
702 39 1
702 68 1
702 79 1
702 87 1
702 98 1
703 32 1
703 38 1
703 55 1
703 59 1
703 78 1
703 86 1
704 3 1
704 10 1
704 14 1
704 40 1
704 43 1
704 46 1
704 57 1
705 9 1
705 10 1
705 17 1
705 38 1
705 41 2
705 78 1
705 88 1
705 90 1
705 94 1
706 99 1
707 1 1
707 20 1
707 22 1
707 25 1
707 28 1
707 38 1
707 90 1
708 9 1
708 26 1
708 39 1
708 80 1
708 84 1
708 90 1
709 6 1
709 13 1
709 22 1
709 24 1
709 56 1
709 63 1
709 69 2
709 77 1
709 89 1
709 92 1
710 3 1
710 9 1
710 15 1
710 32 1
710 60 1
710 74 1
710 85 1
710 100 1
711 16 1
711 17 1
711 18 1
711 50 1
711 55 1
711 75 1
711 98 1
712 14 1
712 17 1
712 23 1
712 44 1
712 50 1
713 8 1
713 30 1
713 52 1
713 58 1
713 59 1
714 12 2
714 23 1
714 42 1
714 52 1
714 53 1
714 56 1
714 58 1
714 89 1
715 4 1
715 36 1
715 37 1
715 39 1
715 40 1
715 43 1
715 44 1
715 64 1
715 78 1
716 3 2
716 32 1
716 73 1
716 92 1
716 93 1
717 1 1
717 14 1
717 90 1
717 98 1
718 6 3
718 19 1
718 22 1
718 39 1
718 44 1
718 73 1
718 87 1
719 11 2
719 17 1
719 37 1
719 42 1
719 43 1
719 50 1
719 54 1
719 78 1
719 85 1
719 86 1
720 5 1
720 11 1
720 15 1
720 29 1
720 56 1
721 39 1
721 45 1
721 62 1
721 71 1
722 17 1
722 30 1
722 31 1
722 40 1
722 55 1
722 57 1
722 60 1
722 62 1
722 83 1
722 91 1
722 92 1
723 13 1
723 16 1
723 40 1
723 41 1
723 54 1
723 67 1
723 96 1
724 1 1
724 36 2
724 62 1
724 89 1
725 2 1
725 40 1
725 42 1
725 52 1
725 72 1
725 82 1
725 98 2
726 22 1
726 32 1
726 43 1
726 61 1
726 63 1
726 82 1
726 85 1
727 8 1
727 33 1
727 40 1
727 85 1
728 2 1
728 30 2
728 46 1
728 49 1
728 96 1
729 8 1
729 10 1
729 57 1
729 67 1
729 69 1
729 71 1
729 72 1
729 83 1
729 87 1
729 89 1
729 91 1
729 92 1
729 95 1
730 1 1
730 16 1
730 55 1
730 61 1
730 68 1
730 78 1
730 80 1
730 81 1
730 87 1
730 98 1
730 100 1
731 9 1
731 13 1
731 47 1
731 48 1
732 18 1
732 21 1
732 24 1
732 76 1
732 79 1
732 97 2
732 100 1
733 1 1
733 10 1
733 93 1
734 7 1
734 25 1
734 47 1
734 57 1
734 63 1
734 71 1
734 74 2
734 90 1
735 22 1
735 34 1
735 44 1
735 77 1
735 81 1
735 90 1
736 4 1
736 32 1
736 40 1
736 56 1
736 60 1
736 66 1
736 71 1
736 89 1
736 93 1
737 6 1
737 7 1
737 8 1
737 21 1
737 44 1
737 85 1
738 15 1
738 31 1
738 43 2
738 44 1
738 68 1
738 72 1
739 41 1
739 55 1
739 58 1
739 96 1
740 17 1
740 22 1
740 24 1
740 29 1
740 40 1
740 49 1
740 68 1
741 1 1
741 4 1
741 18 1
741 22 1
741 23 1
741 32 1
741 33 1
741 40 1
741 59 1
741 66 1
741 82 1
741 90 1
742 9 1
742 11 1
742 33 1
742 55 1
742 80 1
742 87 1
742 88 1
743 4 2
743 17 1
743 18 1
743 63 1
743 92 1
744 8 1
744 11 1
744 33 1
744 35 1
744 38 1
744 42 1
744 63 1
744 78 1
744 87 1
745 1 1
745 9 1
745 31 1
745 52 1
745 72 1
745 85 1
745 91 2
746 3 1
746 20 1
746 26 1
746 31 1
746 34 1
746 39 1
746 55 1
746 59 1
746 88 2
747 3 1
747 4 1
747 20 1
747 43 1
747 71 1
747 72 1
747 74 1
747 78 1
747 79 1
747 93 1
747 94 1
747 95 1
748 32 1
748 54 1
748 70 1
749 77 1
749 80 1
749 91 1
749 92 1
749 94 1
750 22 1
750 26 1
750 75 1
750 85 1
750 86 1
751 14 1
751 28 1
751 46 1
751 47 1
751 53 1
751 57 1
751 63 1
751 65 1
751 78 1
752 19 1
752 35 2
752 45 1
752 61 1
752 66 1
752 74 1
752 76 1
752 80 1
752 81 1
753 8 2
753 9 1
753 23 1
753 29 1
753 31 1
753 52 1
753 55 1
753 59 2
753 66 1
753 73 1
753 79 1
753 81 1
754 34 1
754 59 1
754 71 1
754 87 1
755 19 1
755 35 1
755 64 1
755 74 1
755 88 1
755 92 1
756 20 1
756 26 2
756 31 1
756 39 1
756 46 1
756 72 2
756 97 1
757 3 1
757 8 1
757 44 2
757 50 1
757 59 1
757 68 1
757 69 1
757 94 1
757 99 1
758 9 1
758 38 1
758 49 1
758 51 1
758 53 1
758 58 1
758 83 1
758 97 1
759 16 1
759 39 2
759 51 1
759 53 2
759 65 1
759 86 1
759 100 1
760 36 1
760 43 1
760 45 1
760 53 1
760 57 1
760 59 2
760 67 1
760 79 1
761 6 1
761 8 1
761 31 1
761 39 1
761 62 1
761 72 2
762 48 1
762 58 1
762 98 1
763 5 1
763 9 1
763 11 1
763 17 1
763 21 1
763 31 1
763 56 1
763 71 1
763 81 1
764 10 1
764 16 1
764 24 1
764 63 1
764 90 1
764 91 1
764 94 1
765 22 1
765 23 1
765 29 1
765 39 1
765 89 1
766 20 1
766 35 1
766 38 1
766 45 1
766 46 1
766 50 1
766 68 1
766 97 1
767 4 1
767 7 1
767 8 1
767 38 1
767 50 1
767 56 1
768 7 1
768 14 1
768 67 1
768 68 1
768 95 1
768 99 1
769 2 1
769 3 1
769 31 1
769 36 1
769 49 1
769 62 2
769 67 1
769 72 1
769 79 1
770 9 1
770 10 1
770 14 1
770 25 1
770 30 1
770 35 1
770 62 1
770 73 1
770 92 1
770 94 1
771 11 1
771 24 1
771 29 1
771 59 1
771 71 1
771 74 1
771 95 1
772 2 1
772 5 1
772 14 1
772 28 1
772 30 1
772 51 1
772 88 1
773 2 1
773 3 1
773 50 1
773 63 1
773 68 1
773 77 1
773 83 1
773 84 1
774 10 1
774 14 1
774 21 1
774 82 1
774 92 1
775 2 1
775 31 1
775 56 1
775 72 1
775 85 1
775 89 1
776 19 1
776 23 1
776 31 1
776 44 1
776 49 1
776 61 1
776 70 1
776 74 1
776 80 1
776 82 1
776 89 1
777 9 1
777 32 1
777 35 1
777 55 1
777 56 1
777 99 1
778 20 1
778 39 1
778 67 1
778 70 1
778 77 1
778 81 1
778 91 1
778 95 1
779 12 1
779 13 1
779 37 1
779 41 1
779 55 1
779 59 2
780 5 1
780 18 1
780 42 1
780 56 1
780 70 1
781 21 1
781 41 1
781 51 1
781 65 1
781 72 2
781 73 1
781 94 1
781 99 1
782 14 1
782 17 1
782 25 1
782 28 1
783 3 1
783 41 1
783 46 1
783 53 1
784 2 1
784 21 1
784 33 1
784 68 1
785 33 1
785 39 2
785 53 1
785 85 1
786 7 1
786 27 1
786 28 1
786 51 1
786 58 1
786 95 1
787 3 1
787 13 1
787 44 1
787 48 1
787 53 1
787 59 2
787 85 1
788 7 1
788 9 1
788 21 1
788 40 1
788 51 1
788 68 1
788 73 1
788 99 1
788 100 1
789 26 1
789 95 1
790 15 1
790 20 1
790 48 1
790 60 1
790 69 1
790 71 1
790 74 2
790 85 1
790 87 2
791 15 2
791 31 1
791 58 1
791 59 1
791 66 1
791 85 1
792 6 1
792 44 1
792 69 1
792 74 1
793 25 2
793 85 1
793 91 1
794 18 1
794 49 1
794 66 1
794 93 1
794 94 1
795 4 2
795 19 1
795 23 1
795 43 1
795 50 1
795 66 2
795 73 1
795 80 1
796 24 1
796 36 1
796 44 1
796 48 1
796 79 1
797 28 1
797 36 1
797 40 1
797 46 1
797 76 1
797 86 1
797 89 1
797 99 1
798 4 1
798 29 1
798 32 1
798 76 1
799 2 1
799 10 1
799 18 1
799 20 1
799 29 1
799 44 1
799 65 1
799 70 1
799 80 1
799 81 1
799 88 1
800 4 1
800 12 1
800 17 1
800 23 1
800 25 1
800 31 1
800 38 1
800 42 1
800 52 1
800 55 1
800 65 1
800 68 1
800 96 1
801 42 1
801 63 1
801 85 1
801 97 1
802 6 1
802 21 1
802 25 1
802 68 1
802 80 1
802 82 1
802 83 1
802 92 1
802 93 1
803 2 1
803 5 1
803 26 1
803 32 1
803 52 1
803 63 1
803 80 1
803 85 1
803 86 1
804 23 1
804 29 1
804 50 1
804 79 1
805 30 1
805 44 1
805 47 1
805 57 1
805 71 1
805 74 1
805 91 1
805 96 1
806 9 1
806 17 1
806 23 1
806 49 1
806 51 1
806 90 1
807 12 1
807 15 1
807 21 1
807 22 1
807 34 1
807 36 1
807 48 1
807 51 1
807 61 1
807 74 1
807 76 1
807 86 1
808 21 1
808 36 1
808 45 1
808 48 1
808 52 1
808 60 1
808 62 1
808 67 1
808 78 1
808 99 1
809 43 1
809 98 1
809 100 1
810 9 1
810 21 1
810 26 2
810 31 1
810 65 1
810 83 1
811 5 1
811 6 1
811 7 2
811 22 1
811 43 1
811 46 1
811 50 1
811 52 1
811 77 2
811 83 2
812 5 1
812 15 1
812 31 1
812 43 1
813 30 1
813 44 1
813 54 1
813 63 1
813 66 1
813 72 1
813 75 1
813 91 1
813 96 1
814 31 1
814 36 1
814 43 1
814 52 1
814 63 1
814 69 1
814 72 1
814 73 1
814 82 1
814 97 2
815 13 1
815 26 1
815 47 1
815 68 1
815 80 1
815 84 1
815 96 1
816 12 1
816 41 1
816 55 1
816 68 1
816 86 2
816 87 2
816 90 1
816 92 1
817 17 1
817 22 1
817 41 1
817 47 1
817 51 1
817 75 1
817 77 1
817 90 1
817 98 1
818 12 1
818 16 1
818 23 1
818 46 1
818 47 1
818 52 1
818 61 1
818 75 1
819 12 1
819 17 1
819 50 1
819 57 1
819 59 1
819 78 1
820 41 1
820 64 1
820 91 1
821 10 1
821 60 1
821 70 1
821 89 1
822 30 1
822 51 1
822 70 1
822 83 1
823 1 1
823 21 1
823 56 1
823 58 1
823 62 1
823 63 1
823 81 1
824 5 2
824 23 1
824 42 2
824 60 1
824 72 1
824 77 1
824 87 1
825 1 1
825 2 1
825 14 1
825 18 1
825 47 2
825 53 1
825 59 1
825 68 1
825 69 1
825 77 2
826 34 1
826 62 1
826 70 1
826 80 1
826 87 1
827 3 1
827 19 1
827 64 1
827 71 1
827 75 1
827 80 1
827 83 2
827 84 1
828 2 1
828 28 1
828 45 1
828 57 1
828 59 1
828 97 1
829 29 1
829 33 1
829 49 1
829 61 1
829 71 1
829 72 1
829 82 1
829 89 1
830 9 1
830 31 1
830 32 1
830 51 1
830 77 1
830 82 1
830 99 1
831 10 1
831 11 1
831 24 1
831 44 1
831 49 1
831 68 1
831 80 1
832 27 2
832 31 1
832 34 1
832 51 1
832 57 1
832 81 1
832 94 1
833 9 1
833 10 1
833 13 1
833 27 1
833 46 1
833 59 1
833 61 1
833 75 1
833 91 1
833 99 1
834 5 1
834 28 1
834 29 1
834 40 1
834 75 1
834 77 1
834 87 1
834 89 1
835 13 1
835 20 1
835 48 1
835 55 1
835 69 1
835 73 1
835 79 1
835 91 1
835 92 1
836 19 1
836 21 1
836 22 2
836 43 1
836 48 1
836 52 1
837 1 1
837 40 1
837 47 1
837 51 1
837 56 1
837 64 1
837 72 1
837 77 1
837 95 1
838 9 1
838 76 1
838 87 1
839 31 1
839 34 1
839 35 1
839 49 1
839 74 1
839 75 1
840 17 1
840 32 1
840 40 1
840 63 1
840 65 2
841 9 1
841 18 2
841 26 1
841 42 2
841 43 1
841 46 1
841 47 1
841 62 1
842 27 1
842 30 1
842 31 1
842 54 1
842 73 1
843 30 1
843 35 1
843 37 1
843 61 1
844 6 1
844 29 1
844 44 1
844 45 1
844 46 1
844 51 1
844 83 1
844 88 1
844 97 1
844 98 1
845 4 1
845 7 1
845 12 1
845 47 1
845 55 1
845 68 1
845 72 1
845 73 1
845 80 1
845 93 1
846 6 1
846 7 1
846 23 1
846 47 1
846 57 1
846 69 1
846 91 1
846 99 1
847 1 1
847 12 1
847 19 1
847 29 2
847 38 1
847 57 1
848 4 1
848 52 1
848 56 1
848 65 1
848 68 1
848 100 2
849 23 1
849 55 1
850 7 1
850 19 1
850 30 1
851 4 1
851 28 1
851 37 1
851 42 1
851 52 1
851 74 1
851 75 1
851 90 1
852 2 1
852 44 1
853 21 1
853 27 1
853 64 1
853 72 1
853 74 1
854 2 1
854 21 1
854 28 1
854 47 1
854 48 1
854 53 1
854 61 1
854 80 1
854 94 1
854 97 1
855 5 1
855 10 1
855 16 1
855 30 1
855 43 1
855 60 1
855 69 1
855 100 1
856 14 1
856 21 1
856 35 1
856 39 1
856 44 1
856 56 1
856 64 1
856 66 1
856 69 1
857 1 1
857 4 1
857 35 1
857 36 1
857 49 1
857 86 2
857 94 1
858 5 1
858 39 1
858 47 1
858 53 1
858 68 1
858 73 1
858 85 1
858 95 1
859 20 1
859 35 1
859 36 1
859 41 1
859 60 1
859 79 2
859 90 1
859 92 1
859 99 1
860 50 1
860 67 1
860 69 2
860 95 1
861 24 1
861 36 1
861 45 1
861 46 1
861 48 1
861 51 1
861 71 1
861 72 1
862 16 1
862 30 1
862 33 1
862 34 1
862 78 1
862 86 1
862 92 2
862 97 1
863 2 1
863 8 1
863 10 1
863 14 1
863 16 1
863 21 1
863 34 1
863 38 1
863 42 1
863 58 1
863 68 1
863 73 1
863 74 1
864 1 1
864 17 1
864 19 2
864 21 1
864 28 1
864 29 1
864 47 1
864 54 1
864 61 1
864 77 1
864 79 1
865 1 1
865 5 1
865 73 1
866 24 1
866 61 1
866 62 1
866 72 1
866 84 1
867 31 1
868 7 3
868 15 1
868 35 1
868 46 1
868 61 1
868 64 1
868 73 1
868 96 1
869 6 1
869 11 1
869 24 1
869 25 1
870 1 1
870 5 1
870 12 1
870 24 2
870 51 1
870 63 1
870 73 1
870 95 1
871 9 1
871 37 2
871 42 1
871 51 1
871 55 1
871 86 1
871 95 1
872 1 1
872 34 1
872 37 1
872 79 1
872 81 1
872 97 1
873 3 1
873 26 1
873 27 1
873 34 1
873 62 1
873 74 1
874 1 1
874 43 1
874 46 1
874 52 1
874 70 1
874 84 1
874 94 1
875 37 1
875 58 1
875 88 1
875 100 1
876 7 1
876 8 1
876 10 1
876 23 1
876 39 1
876 42 1
876 46 1
876 48 1
876 53 2
876 65 1
876 67 1
877 9 1
877 41 1
877 54 1
877 88 1
877 97 1
878 21 1
878 28 1
878 38 1
878 48 1
878 49 1
878 57 1
878 68 1
878 71 1
878 78 1
878 80 1
878 81 1
878 98 1
879 6 2
879 7 1
879 9 1
879 12 1
879 15 1
879 28 1
879 42 1
879 44 1
879 53 1
879 63 1
879 79 1
880 3 1
880 6 1
880 27 1
880 30 1
880 70 1
880 86 1
881 7 1
881 12 1
881 21 1
881 25 1
881 27 1
881 43 2
881 50 1
881 51 2
881 60 1
881 68 1
881 72 1
881 75 2
881 81 1
881 91 1
882 10 1
882 29 2
882 33 1
882 43 1
882 93 1
883 2 1
883 10 1
883 48 1
883 58 1
883 99 1
884 9 1
884 14 1
884 24 1
884 45 1
884 50 1
884 58 1
884 92 1
885 8 1
885 14 1
885 49 1
885 52 1
885 60 1
886 15 1
886 27 1
886 39 1
886 59 1
886 69 1
886 100 1
887 26 1
887 41 1
887 51 1
887 66 1
887 73 1
888 29 1
888 39 1
888 86 1
888 95 1
889 32 1
889 42 1
889 50 1
889 57 1
889 60 1
890 23 2
890 42 1
890 53 1
890 62 1
890 72 1
890 73 1
891 34 1
891 41 1
891 61 1
891 74 1
891 79 1
892 10 1
892 42 1
892 48 1
892 50 1
892 72 2
892 84 1
892 88 1
892 93 1
893 20 1
893 62 1
894 14 1
894 15 1
894 17 1
894 43 1
894 55 1
894 61 1
894 67 1
894 74 1
894 79 1
894 87 1
894 91 1
895 10 1
895 23 1
895 51 1
895 78 1
895 81 1
895 84 1
895 85 1
896 53 2
896 55 2
896 85 1
896 93 1
897 9 1
897 10 1
897 23 1
897 51 1
897 55 1
897 56 1
897 75 1
898 13 1
898 33 1
898 42 2
898 43 1
898 56 1
898 81 1
899 60 1
899 67 1
899 69 1
899 100 1
900 1 1
900 16 2
900 32 1
900 41 1
900 53 1
901 28 1
901 39 1
901 42 1
901 48 1
901 50 1
901 56 1
901 65 1
901 79 1
901 81 2
901 92 2
902 7 1
902 23 1
902 62 1
902 66 1
902 77 2
902 79 1
902 80 1
902 83 1
903 8 1
903 24 1
903 30 1
903 63 1
903 66 1
903 87 1
904 22 1
904 25 1
904 28 1
904 30 1
904 85 1
904 88 2
905 2 1
905 23 1
905 25 1
905 37 1
905 48 1
905 64 1
905 78 1
905 88 1
905 94 2
906 2 1
906 100 1
907 11 1
907 21 1
907 93 1
908 3 1
908 13 1
908 19 1
908 21 1
908 34 1
908 39 1
908 100 1
909 6 1
909 24 1
909 25 1
909 46 1
909 67 1
909 75 1
909 90 1
909 91 1
909 93 1
910 14 1
910 20 1
910 31 1
910 57 1
910 77 1
911 11 1
911 17 1
911 33 1
911 39 1
911 51 1
911 70 1
912 7 1
912 14 1
912 27 1
912 49 1
912 94 1
913 1 1
913 12 1
913 17 1
913 20 1
913 24 1
913 31 1
913 32 1
913 38 1
913 56 2
913 63 1
913 76 1
913 82 1
913 93 1
913 95 1
914 32 1
914 38 1
914 71 1
914 95 1
915 5 1
915 9 1
915 14 1
915 17 1
915 33 1
915 47 1
915 51 1
915 62 1
915 71 1
915 90 1
915 91 1
915 100 1
916 11 1
916 16 1
916 18 1
916 27 1
916 41 1
916 42 2
916 45 1
916 51 1
916 55 1
916 93 1
917 17 1
917 21 1
917 22 1
917 89 1
918 6 1
918 16 1
918 28 1
918 33 1
918 40 1
918 83 1
918 85 1
918 88 1
919 22 2
919 24 1
919 41 1
919 53 1
919 63 1
919 94 1
920 1 1
920 16 1
920 20 1
920 32 1
920 57 1
920 65 1
920 88 1
921 63 1
921 64 2
921 94 1
921 96 1
921 97 1
922 14 1
922 25 1
922 29 1
922 37 2
922 41 1
922 96 1
923 17 2
923 32 1
923 33 1
923 64 2
923 75 1
924 6 1
924 18 1
924 29 1
924 46 1
924 49 1
924 60 1
924 81 1
924 95 1
925 10 1
925 33 1
925 37 2
925 48 1
925 71 1
925 72 1
925 90 1
926 19 1
926 38 1
926 39 3
926 60 1
926 64 1
926 81 1
926 91 1
927 9 1
927 14 1
927 33 1
927 51 2
927 73 1
927 80 1
928 35 1
928 57 1
928 59 1
928 75 1
928 88 1
929 6 1
929 13 1
929 19 1
929 36 1
929 47 1
929 63 1
929 64 1
929 69 1
929 72 1
929 79 1
929 89 1
929 91 1
930 13 1
930 16 1
930 25 1
930 44 1
930 55 1
930 83 1
930 85 1
930 86 1
931 1 2
931 7 2
931 12 1
931 26 1
931 29 1
931 47 1
931 59 1
931 72 1
931 74 1
931 76 1
932 23 1
932 28 1
932 29 1
932 49 1
932 65 2
932 67 1
932 68 2
932 91 1
932 95 1
932 96 2
933 30 1
933 36 1
933 41 1
933 60 1
933 67 1
933 73 1
933 74 1
933 97 1
934 5 1
934 18 1
934 36 1
934 48 1
934 56 1
934 82 1
934 93 1
934 98 2
935 29 1
935 47 1
935 50 1
935 80 1
935 82 2
935 93 1
936 46 1
936 50 1
936 83 1
937 3 1
937 4 1
937 7 1
937 29 1
937 32 1
937 33 1
937 34 1
937 35 1
937 80 1
937 87 1
938 13 1
938 21 1
938 69 1
938 76 1
938 80 1
938 99 1
939 31 1
939 62 1
940 7 1
940 15 1
940 17 1
940 30 1
940 36 2
940 57 1
940 77 1
940 84 1
940 93 1
941 6 1
941 21 1
941 22 1
941 27 1
941 32 1
941 47 1
941 92 1
942 6 1
942 34 1
942 69 1
942 78 1
942 79 1
943 14 2
943 30 1
943 53 1
943 80 1
943 95 1
944 1 1
944 8 1
944 27 1
944 32 1
944 34 1
944 57 1
944 77 1
945 12 1
945 20 1
945 37 2
945 42 1
945 68 1
945 76 2
945 79 1
945 81 2
945 87 1
945 97 1
946 4 1
946 11 1
946 18 1
946 27 1
946 34 1
946 48 1
946 64 1
947 1 1
947 2 1
947 16 1
947 30 1
947 37 2
947 85 1
948 7 1
948 42 1
948 48 1
948 49 1
948 58 1
948 77 1
948 80 1
948 84 1
948 97 1
949 6 1
949 8 1
949 37 1
949 72 1
949 92 1
949 96 1
949 97 1
949 100 1
950 5 1
950 36 2
950 38 1
950 48 1
950 67 2
950 69 1
951 5 1
951 10 1
951 31 1
951 32 1
951 35 1
951 44 1
951 62 1
951 93 2
951 98 1
952 14 1
952 16 1
952 21 1
952 35 1
952 64 1
952 66 1
952 78 1
952 83 1
952 85 2
952 87 1
953 16 1
953 36 1
953 47 1
953 49 1
953 56 1
953 75 1
954 19 1
954 32 1
954 52 1
954 68 1
954 75 1
954 91 1
954 93 1
955 5 1
955 17 1
955 22 1
955 69 1
955 92 1
956 9 1
956 24 1
957 3 1
957 14 1
957 17 1
957 38 1
957 42 1
957 52 1
957 64 1
957 78 1
957 87 1
957 94 1
958 1 1
958 35 1
958 46 1
958 52 1
958 59 1
958 74 1
958 81 1
958 83 1
958 97 1
959 19 1
959 49 1
959 50 1
959 67 1
959 75 1
959 80 1
960 8 1
960 18 1
960 33 1
960 58 1
960 85 1
960 93 1
961 1 1
961 14 1
961 32 1
961 37 1
961 42 1
961 51 1
961 53 1
961 55 1
962 3 1
962 66 1
962 77 1
962 99 1
963 14 1
963 20 1
963 46 1
963 60 1
963 64 1
964 20 1
964 22 1
964 45 1
964 50 1
964 54 1
964 59 1
964 62 1
964 65 1
964 70 1
964 93 1
965 12 1
965 16 1
965 30 1
965 48 1
965 53 1
965 73 2
965 77 1
965 85 1
966 8 1
966 12 1
966 36 1
966 72 1
966 83 1
966 87 1
966 94 1
966 95 1
966 100 1
967 9 1
967 24 1
967 43 2
967 69 1
967 72 1
967 85 1
967 86 1
967 92 1
967 95 1
968 65 1
968 90 1
969 13 1
969 23 1
969 26 1
969 27 1
969 62 1
969 70 2
969 73 1
969 75 1
969 92 1
969 95 1
970 1 1
970 3 1
970 25 1
970 38 1
970 70 1
970 72 1
970 75 1
970 93 1
970 96 1
971 36 1
971 55 1
971 56 1
971 71 1
971 75 1
972 27 1
972 35 1
972 65 1
972 67 1
972 82 1
972 90 1
972 92 1
973 32 1
973 41 2
973 43 1
973 59 1
973 80 1
974 14 1
974 16 1
974 36 2
974 63 1
974 69 1
974 100 1
975 26 1
975 46 1
975 55 3
975 74 1
975 85 2
976 10 2
976 20 1
976 65 1
976 95 1
977 5 1
977 9 1
977 20 1
977 29 1
977 30 1
977 34 2
977 44 1
977 49 1
977 54 1
977 57 1
977 67 1
977 79 1
977 91 1
977 93 1
978 11 1
978 24 1
978 35 1
978 42 1
978 43 1
978 52 1
978 59 1
978 70 1
978 78 1
978 79 1
978 80 1
978 87 1
979 24 1
979 30 1
979 34 1
979 37 1
979 48 1
979 73 1
979 74 2
979 78 1
979 81 1
979 83 1
979 91 1
979 93 1
979 94 1
980 6 1
980 13 1
980 14 1
980 54 1
980 56 1
980 58 1
980 74 1
980 87 1
980 97 1
981 3 1
981 6 1
981 11 1
981 13 1
981 24 1
981 31 1
981 37 1
981 51 2
981 53 1
981 74 1
981 80 1
981 93 1
982 38 1
982 47 1
982 49 1
982 66 1
982 95 1
983 9 1
983 19 1
983 26 1
983 59 1
984 17 1
984 36 1
984 52 1
984 60 1
984 76 1
984 81 1
984 92 1
985 10 1
985 19 1
985 24 1
985 27 1
985 46 1
985 64 1
985 70 2
985 75 1
986 4 1
986 29 1
986 38 2
986 43 1
986 66 2
986 69 1
986 88 1
987 12 1
987 35 1
987 47 1
987 61 1
987 64 1
987 68 1
987 73 1
987 74 1
987 92 1
988 9 1
988 25 1
988 27 2
988 36 1
988 54 1
988 55 1
988 58 1
988 76 1
988 85 1
989 8 1
989 38 1
989 39 1
989 56 1
990 17 1
990 18 1
990 19 1
990 22 1
990 35 1
990 42 1
990 57 1
990 80 2
990 91 1
991 14 1
991 23 1
991 31 1
991 43 1
991 48 1
991 49 1
991 59 1
991 64 1
991 72 1
991 74 1
991 77 1
991 99 1
992 6 1
992 22 2
992 24 1
992 65 3
992 77 1
992 100 2
993 5 1
993 21 2
993 69 1
993 79 1
993 89 1
993 99 1
994 27 2
994 41 2
994 66 1
994 80 1
994 81 1
995 14 1
995 42 1
995 60 1
995 68 1
995 89 1
995 94 1
996 17 1
996 22 1
996 47 1
996 48 1
996 49 1
996 67 1
996 98 1
997 57 1
997 66 1
998 12 1
998 19 1
998 28 1
998 31 1
998 39 1
998 44 1
998 50 1
998 54 1
998 62 1
998 66 1
999 2 1
999 7 2
999 13 1
999 14 1
999 18 1
999 32 2
999 54 1
999 87 1
1000 24 1
1000 45 1
1000 51 1
1000 70 1
1000 80 1
1000 84 1
1000 96 1
