%%MatrixMarket matrix coordinate integer general
%
1000	100	11361
1 4 6
1 5 10
1 6 9
1 7 12
1 11 9
1 12 1
1 13 1
1 15 10
1 16 6
1 17 3
1 20 6
1 21 13
1 22 7
1 23 6
1 26 8
1 28 9
1 31 6
1 33 7
1 35 8
1 37 9
1 38 11
1 39 6
1 40 2
1 42 10
1 43 5
1 47 1
1 51 6
1 52 5
1 53 6
1 55 2
1 57 10
1 58 3
1 60 1
1 61 1
1 62 10
1 63 11
1 65 1
1 71 1
1 72 1
1 74 1
1 75 6
1 77 1
1 81 4
1 84 1
1 85 1
1 86 7
1 88 13
1 89 10
1 90 6
1 91 10
1 93 15
1 95 13
1 98 1
1 100 8
2 3 1
2 4 12
2 5 11
2 6 6
2 7 11
2 11 8
2 12 1
2 15 11
2 16 6
2 17 14
2 20 11
2 21 10
2 22 14
2 23 11
2 26 7
2 28 10
2 31 8
2 33 7
2 35 8
2 37 5
2 38 9
2 39 10
2 42 9
2 43 4
2 44 1
2 47 1
2 49 2
2 50 1
2 51 14
2 52 6
2 53 6
2 57 4
2 58 1
2 61 1
2 62 10
2 63 2
2 66 2
2 75 10
2 80 1
2 81 9
2 86 11
2 88 16
2 89 9
2 90 17
2 91 10
2 93 9
2 94 1
2 95 9
2 100 10
3 4 6
3 5 9
3 6 4
3 7 5
3 11 3
3 15 10
3 16 11
3 17 11
3 20 5
3 21 11
3 22 10
3 23 13
3 25 1
3 26 5
3 28 7
3 29 1
3 31 8
3 33 6
3 35 3
3 37 8
3 38 4
3 39 12
3 41 2
3 42 2
3 43 14
3 44 2
3 45 1
3 50 2
3 51 5
3 52 5
3 53 2
3 57 5
3 59 1
3 62 6
3 63 3
3 69 1
3 72 1
3 75 6
3 76 1
3 81 5
3 86 4
3 88 8
3 89 8
3 90 6
3 91 8
3 93 14
3 95 3
3 96 1
3 97 2
3 99 1
3 100 5
4 4 9
4 5 7
4 6 11
4 7 8
4 8 1
4 10 1
4 11 6
4 14 1
4 15 10
4 16 7
4 17 2
4 20 7
4 21 8
4 22 6
4 23 5
4 26 10
4 27 1
4 28 12
4 29 1
4 31 13
4 32 1
4 33 7
4 35 3
4 37 11
4 38 5
4 39 6
4 42 6
4 43 8
4 47 1
4 51 24
4 52 7
4 53 8
4 55 1
4 57 8
4 62 7
4 63 13
4 64 1
4 68 1
4 70 1
4 72 2
4 74 1
4 75 10
4 76 1
4 79 1
4 81 5
4 86 5
4 87 1
4 88 6
4 89 6
4 90 7
4 91 12
4 93 10
4 94 1
4 95 12
4 100 4
5 1 1
5 3 1
5 4 3
5 5 2
5 6 13
5 7 6
5 8 1
5 11 6
5 14 1
5 15 6
5 16 10
5 17 4
5 19 1
5 20 6
5 21 12
5 22 4
5 23 8
5 26 7
5 28 3
5 30 1
5 31 8
5 33 9
5 35 1
5 37 10
5 38 6
5 39 12
5 40 1
5 42 5
5 43 5
5 50 2
5 51 16
5 52 7
5 53 10
5 57 16
5 58 1
5 62 8
5 63 5
5 64 1
5 69 2
5 73 1
5 75 8
5 76 1
5 77 1
5 81 7
5 86 8
5 87 1
5 88 8
5 89 11
5 90 12
5 91 11
5 93 4
5 95 19
5 97 1
5 98 1
5 100 7
6 1 1
6 4 16
6 5 7
6 6 5
6 7 6
6 11 7
6 15 8
6 16 6
6 17 7
6 20 8
6 21 11
6 22 3
6 23 5
6 26 6
6 27 2
6 28 8
6 31 5
6 33 9
6 35 7
6 37 14
6 38 6
6 39 5
6 40 1
6 42 7
6 43 11
6 44 1
6 47 1
6 51 4
6 52 11
6 53 9
6 57 5
6 59 1
6 62 6
6 63 6
6 64 1
6 72 1
6 74 1
6 75 9
6 76 2
6 77 1
6 79 1
6 81 13
6 84 1
6 86 9
6 88 9
6 89 4
6 90 8
6 91 4
6 92 1
6 93 9
6 95 7
6 100 7
7 5 2
7 8 11
7 9 6
7 10 10
7 11 1
7 18 6
7 19 4
7 25 4
7 28 1
7 29 1
7 32 5
7 40 1
7 44 10
7 45 5
7 46 8
7 49 1
7 50 5
7 55 7
7 58 4
7 64 19
7 66 8
7 67 8
7 70 7
7 73 7
7 77 13
7 78 9
7 79 11
7 80 1
7 82 10
7 83 12
7 87 5
7 92 8
7 97 1
8 1 1
8 2 1
8 6 1
8 8 6
8 9 15
8 10 5
8 15 1
8 18 4
8 19 6
8 22 1
8 25 7
8 27 2
8 29 3
8 32 6
8 39 1
8 41 1
8 43 1
8 44 7
8 45 10
8 46 9
8 50 8
8 54 1
8 55 12
8 57 2
8 58 15
8 61 1
8 64 14
8 65 1
8 66 7
8 67 12
8 69 1
8 70 5
8 73 7
8 77 6
8 78 7
8 79 11
8 82 4
8 83 6
8 87 11
8 89 1
8 92 5
8 97 7
9 1 1
9 4 1
9 5 1
9 8 9
9 9 11
9 10 7
9 15 1
9 18 5
9 19 1
9 21 2
9 23 1
9 25 8
9 26 1
9 31 1
9 32 7
9 41 1
9 44 5
9 45 10
9 46 5
9 50 11
9 53 1
9 55 9
9 58 13
9 59 1
9 64 6
9 66 9
9 67 6
9 70 9
9 71 2
9 73 14
9 77 4
9 78 11
9 79 5
9 82 13
9 83 4
9 85 1
9 87 10
9 91 1
9 92 8
9 93 1
9 97 6
9 99 2
10 2 1
10 5 1
10 8 6
10 9 9
10 10 6
10 12 1
10 17 1
10 18 6
10 19 10
10 25 11
10 26 1
10 32 5
10 33 1
10 37 2
10 44 12
10 45 9
10 46 6
10 50 11
10 55 7
10 58 12
10 64 5
10 65 2
10 66 7
10 67 11
10 70 16
10 73 8
10 75 2
10 77 5
10 78 8
10 79 5
10 82 9
10 83 8
10 87 12
10 88 1
10 92 11
10 94 1
10 95 1
10 96 1
10 97 5
10 99 1
11 8 9
11 9 9
11 10 10
11 14 1
11 18 7
11 19 2
11 21 1
11 24 1
11 25 10
11 27 1
11 30 1
11 32 3
11 34 1
11 43 1
11 44 9
11 45 11
11 46 7
11 48 1
11 50 8
11 53 1
11 55 9
11 56 2
11 58 6
11 60 1
11 64 13
11 66 5
11 67 13
11 70 9
11 72 1
11 73 4
11 74 1
11 76 1
11 77 9
11 78 7
11 79 10
11 82 9
11 83 6
11 85 1
11 87 4
11 91 1
11 92 7
11 93 1
11 97 12
11 99 2
12 8 3
12 9 6
12 10 11
12 18 6
12 19 6
12 25 4
12 29 1
12 32 6
12 44 6
12 45 8
12 46 10
12 48 1
12 49 1
12 50 5
12 55 3
12 58 7
12 61 1
12 62 1
12 64 9
12 65 1
12 66 5
12 67 14
12 70 4
12 73 2
12 74 1
12 77 8
12 78 8
12 79 13
12 82 10
12 83 10
12 87 7
12 92 9
12 97 9
12 99 1
13 2 1
13 3 8
13 5 1
13 8 2
13 12 6
13 13 9
13 14 3
13 15 1
13 27 9
13 30 8
13 31 2
13 34 4
13 36 11
13 38 1
13 41 10
13 45 1
13 47 1
13 53 1
13 54 1
13 59 1
13 61 7
13 65 1
13 66 1
13 67 1
13 68 12
13 69 5
13 70 1
13 71 13
13 74 1
13 76 14
13 79 1
13 80 7
13 81 1
13 84 4
13 88 3
13 98 5
13 99 10
14 1 2
14 2 1
14 3 12
14 5 1
14 12 7
14 13 9
14 14 9
14 15 1
14 27 11
14 28 1
14 29 1
14 30 4
14 34 9
14 36 5
14 41 9
14 43 1
14 44 1
14 45 1
14 47 1
14 51 2
14 54 14
14 56 1
14 58 1
14 61 4
14 64 1
14 68 12
14 69 8
14 71 9
14 72 1
14 74 1
14 75 1
14 76 5
14 78 1
14 79 1
14 80 9
14 81 1
14 82 1
14 84 13
14 88 1
14 89 2
14 93 1
14 94 2
14 98 7
14 99 10
15 1 1
15 3 7
15 9 1
15 11 1
15 12 11
15 13 12
15 14 5
15 16 1
15 22 1
15 27 8
15 28 1
15 30 11
15 33 1
15 34 4
15 36 9
15 40 1
15 41 14
15 47 1
15 49 1
15 51 1
15 54 3
15 58 1
15 59 1
15 60 1
15 61 6
15 68 8
15 69 5
15 71 7
15 73 1
15 75 1
15 76 9
15 78 1
15 80 8
15 84 8
15 85 2
15 86 1
15 87 1
15 98 5
15 99 5
16 2 1
16 3 12
16 7 1
16 12 6
16 13 9
16 14 7
16 16 2
16 17 2
16 19 2
16 22 2
16 27 5
16 28 1
16 30 7
16 32 2
16 33 1
16 34 11
16 36 10
16 37 1
16 40 1
16 41 5
16 43 1
16 46 1
16 47 1
16 51 1
16 52 1
16 54 7
16 56 1
16 57 1
16 60 1
16 61 8
16 62 1
16 68 7
16 69 7
16 70 1
16 71 6
16 73 1
16 76 8
16 80 10
16 83 1
16 84 11
16 93 2
16 96 2
16 98 6
16 99 4
16 100 1
17 3 8
17 12 7
17 13 4
17 14 5
17 15 1
17 26 2
17 27 5
17 30 7
17 31 2
17 34 7
17 36 7
17 38 1
17 39 1
17 40 1
17 41 5
17 42 3
17 45 1
17 46 1
17 49 1
17 51 2
17 54 4
17 57 1
17 58 1
17 61 8
17 68 12
17 69 6
17 71 5
17 72 1
17 76 6
17 80 11
17 82 1
17 84 15
17 95 1
17 96 1
17 97 2
17 98 11
17 99 9
17 100 1
18 3 10
18 12 14
18 13 11
18 14 6
18 24 1
18 27 8
18 28 1
18 30 6
18 32 1
18 34 10
18 36 9
18 41 8
18 42 1
18 45 1
18 46 1
18 54 8
18 56 2
18 58 1
18 61 5
18 62 1
18 66 1
18 68 10
18 69 7
18 71 9
18 74 1
18 76 4
18 77 1
18 78 1
18 80 10
18 82 2
18 84 12
18 86 1
18 96 1
18 98 15
18 99 9
19 1 3
19 2 5
19 13 1
19 17 1
19 24 11
19 29 11
19 33 1
19 36 1
19 40 8
19 46 1
19 47 7
19 48 13
19 49 14
19 51 1
19 56 7
19 57 1
19 59 3
19 60 8
19 61 2
19 64 2
19 65 4
19 70 1
19 71 1
19 72 4
19 74 5
19 76 1
19 79 1
19 83 1
19 85 9
19 86 1
19 89 2
19 91 1
19 93 1
19 94 10
19 96 5
19 100 1
20 1 10
20 2 10
20 3 1
20 5 1
20 8 1
20 11 1
20 12 1
20 15 1
20 20 1
20 24 7
20 28 2
20 29 6
20 40 9
20 47 12
20 48 8
20 49 4
20 50 2
20 51 1
20 56 12
20 59 7
20 60 8
20 63 1
20 65 8
20 70 1
20 72 10
20 73 1
20 74 3
20 75 1
20 83 1
20 85 6
20 86 1
20 87 1
20 90 1
20 94 14
20 96 4
20 97 1
21 1 6
21 2 5
21 12 1
21 20 2
21 23 1
21 24 3
21 29 7
21 31 2
21 37 1
21 40 12
21 45 2
21 46 1
21 47 4
21 48 2
21 49 13
21 53 1
21 55 1
21 56 6
21 57 1
21 59 10
21 60 11
21 65 5
21 67 1
21 72 10
21 74 6
21 75 1
21 77 2
21 78 1
21 83 1
21 84 2
21 85 4
21 90 1
21 93 1
21 94 5
21 96 8
22 1 7
22 2 12
22 6 1
22 8 2
22 12 1
22 15 1
22 16 3
22 23 1
22 24 4
22 25 1
22 26 2
22 27 1
22 29 9
22 35 1
22 36 1
22 37 1
22 40 6
22 43 1
22 47 11
22 48 6
22 49 7
22 52 1
22 53 1
22 56 3
22 59 10
22 60 4
22 65 14
22 67 1
22 68 1
22 72 15
22 74 10
22 78 1
22 81 1
22 84 1
22 85 5
22 94 9
22 96 5
22 100 1
23 1 16
23 2 9
23 5 1
23 6 1
23 7 1
23 11 1
23 14 1
23 20 2
23 21 1
23 24 6
23 29 8
23 31 1
23 35 1
23 36 1
23 39 1
23 40 11
23 44 1
23 45 1
23 47 8
23 48 7
23 49 5
23 54 2
23 56 8
23 59 4
23 60 4
23 65 15
23 72 10
23 74 13
23 77 1
23 80 1
23 81 1
23 82 1
23 85 13
23 87 1
23 90 1
23 94 12
23 95 1
23 96 14
24 1 7
24 2 7
24 8 1
24 14 1
24 20 1
24 22 1
24 24 3
24 25 1
24 29 5
24 32 1
24 33 1
24 34 1
24 39 1
24 40 7
24 42 1
24 44 1
24 46 1
24 47 8
24 48 6
24 49 8
24 56 8
24 58 1
24 59 3
24 60 11
24 65 3
24 66 1
24 72 8
24 73 1
24 74 5
24 78 1
24 80 1
24 83 1
24 85 5
24 87 1
24 92 1
24 94 7
24 96 8
25 1 4
25 2 4
25 3 9
25 4 5
25 5 7
25 6 6
25 7 8
25 8 9
25 9 3
25 10 11
25 11 6
25 13 4
25 14 7
25 15 6
25 16 6
25 17 6
25 18 10
25 19 3
25 20 8
25 21 9
25 22 3
25 23 9
25 24 2
25 25 5
25 26 6
25 27 7
25 28 4
25 29 2
25 30 5
25 31 8
25 32 8
25 33 9
25 34 3
25 35 11
25 36 8
25 37 10
25 38 5
25 39 3
25 40 10
25 41 2
25 42 6
25 43 7
25 44 5
25 45 3
25 46 4
25 47 6
25 48 8
25 49 12
25 50 8
25 51 5
25 52 9
25 53 3
25 54 7
25 55 5
25 56 6
25 57 13
25 58 4
25 59 6
25 60 4
25 61 4
25 62 8
25 63 6
25 64 5
25 65 8
25 66 7
25 67 2
25 68 5
25 69 5
25 70 7
25 71 7
25 72 7
25 73 10
25 74 7
25 75 6
25 76 5
25 77 3
25 78 6
25 79 6
25 80 4
25 81 8
25 82 9
25 83 10
25 84 4
25 85 5
25 86 5
25 87 4
25 88 5
25 89 5
25 90 6
25 91 8
25 92 3
25 93 4
25 94 3
25 95 6
25 96 11
25 97 7
25 98 1
25 99 4
25 100 8
26 1 9
26 2 7
26 3 4
26 4 1
26 5 4
26 6 5
26 7 6
26 8 4
26 9 8
26 10 3
26 11 5
26 12 4
26 13 8
26 14 6
26 15 9
26 16 2
26 17 8
26 18 2
26 19 6
26 20 3
26 21 9
26 22 9
26 23 9
26 24 6
26 25 9
26 26 8
26 27 3
26 28 8
26 29 7
26 30 5
26 31 11
26 32 8
26 33 6
26 34 11
26 35 3
26 36 1
26 37 6
26 38 4
26 39 9
26 40 2
26 41 5
26 42 5
26 43 4
26 44 3
26 45 7
26 46 8
26 47 8
26 48 3
26 49 4
26 50 8
26 51 4
26 52 8
26 53 6
26 54 4
26 55 3
26 56 6
26 57 4
26 58 10
26 59 7
26 60 9
26 61 6
26 62 3
26 63 3
26 64 5
26 65 3
26 66 5
26 67 9
26 68 9
26 69 2
26 70 5
26 71 8
26 72 6
26 73 10
26 74 10
26 75 5
26 76 5
26 77 4
26 78 5
26 79 4
26 80 4
26 81 5
26 82 5
26 83 9
26 84 7
26 85 7
26 86 8
26 87 8
26 88 4
26 89 6
26 90 3
26 91 7
26 92 8
26 93 6
26 94 11
26 95 6
26 96 5
26 97 6
26 98 6
26 99 5
26 100 3
27 1 8
27 2 4
27 3 4
27 4 8
27 5 6
27 6 5
27 7 8
27 8 3
27 9 7
27 10 7
27 11 10
27 12 4
27 13 9
27 14 8
27 15 4
27 16 5
27 17 8
27 18 8
27 19 12
27 20 7
27 21 4
27 22 6
27 23 4
27 24 2
27 25 10
27 26 11
27 27 4
27 29 6
27 30 5
27 31 8
27 32 5
27 33 6
27 34 5
27 35 3
27 36 7
27 37 8
27 38 7
27 39 1
27 40 8
27 41 4
27 42 4
27 43 1
27 44 6
27 45 7
27 46 9
27 47 9
27 48 2
27 49 6
27 50 7
27 51 4
27 52 12
27 53 1
27 54 7
27 55 3
27 56 8
27 57 4
27 58 7
27 59 9
27 60 7
27 61 4
27 62 10
27 63 6
27 64 7
27 65 10
27 66 3
27 67 5
27 68 4
27 69 8
27 70 5
27 71 14
27 73 6
27 74 8
27 75 7
27 76 8
27 77 5
27 78 9
27 79 5
27 80 6
27 81 6
27 82 3
27 83 4
27 84 3
27 85 4
27 86 9
27 87 7
27 88 7
27 89 8
27 90 4
27 91 8
27 92 5
27 93 9
27 94 5
27 95 5
27 96 5
27 97 7
27 98 3
27 99 8
27 100 6
28 1 2
28 2 4
28 3 5
28 4 6
28 5 6
28 6 5
28 7 3
28 8 6
28 9 4
28 10 5
28 11 4
28 12 1
28 13 5
28 14 5
28 15 3
28 16 9
28 17 9
28 18 12
28 19 8
28 20 6
28 21 5
28 22 6
28 23 5
28 24 5
28 25 7
28 26 1
28 27 4
28 28 11
28 29 8
28 30 10
28 31 5
28 32 6
28 33 5
28 34 8
28 35 6
28 36 5
28 37 6
28 38 7
28 39 5
28 40 3
28 41 9
28 42 5
28 43 12
28 44 8
28 45 9
28 46 7
28 47 4
28 48 6
28 49 4
28 50 6
28 51 8
28 52 11
28 53 7
28 54 9
28 55 1
28 56 7
28 57 6
28 58 4
28 59 7
28 60 3
28 61 6
28 62 5
28 63 5
28 64 7
28 65 7
28 66 3
28 67 8
28 68 6
28 69 6
28 70 5
28 71 7
28 72 4
28 73 3
28 74 6
28 75 5
28 76 6
28 77 6
28 78 6
28 79 1
28 80 4
28 81 10
28 82 9
28 83 2
28 84 10
28 85 8
28 86 4
28 87 3
28 88 8
28 89 3
28 90 11
28 91 3
28 92 9
28 93 8
28 94 1
28 95 7
28 96 7
28 97 5
28 98 3
28 99 5
28 100 8
29 1 9
29 2 4
29 3 10
29 4 6
29 5 2
29 6 8
29 7 8
29 8 4
29 9 6
29 10 20
29 11 12
29 12 8
29 13 3
29 14 3
29 15 8
29 16 7
29 17 3
29 18 6
29 19 6
29 20 8
29 21 6
29 22 4
29 23 6
29 24 8
29 25 3
29 26 5
29 27 5
29 28 6
29 29 5
29 30 3
29 31 4
29 32 10
29 33 3
29 34 4
29 35 9
29 36 7
29 37 4
29 38 4
29 39 8
29 40 8
29 41 5
29 42 7
29 43 1
29 44 4
29 45 7
29 46 5
29 47 2
29 48 3
29 49 7
29 50 3
29 51 3
29 52 7
29 53 6
29 54 9
29 55 7
29 56 1
29 57 8
29 58 6
29 59 2
29 60 7
29 61 2
29 62 8
29 63 7
29 64 3
29 65 5
29 66 4
29 67 6
29 68 6
29 69 6
29 70 5
29 71 6
29 72 7
29 73 3
29 74 4
29 75 7
29 76 12
29 77 2
29 78 2
29 79 12
29 80 5
29 81 4
29 82 4
29 83 6
29 84 4
29 85 6
29 86 7
29 87 10
29 88 4
29 89 8
29 90 11
29 91 7
29 92 3
29 93 3
29 94 7
29 95 7
29 96 5
29 97 7
29 98 5
29 99 9
29 100 5
30 1 9
30 2 7
30 3 6
30 4 3
30 5 7
30 6 3
30 7 4
30 8 4
30 9 9
30 10 8
30 11 9
30 12 5
30 13 7
30 14 3
30 15 7
30 16 8
30 17 5
30 18 4
30 19 13
30 20 6
30 21 3
30 22 6
30 23 6
30 24 5
30 25 3
30 26 6
30 27 4
30 28 6
30 29 9
30 30 10
30 31 6
30 32 11
30 33 11
30 34 3
30 35 5
30 36 5
30 37 6
30 38 7
30 39 6
30 40 3
30 41 8
30 42 5
30 43 4
30 44 4
30 45 7
30 46 5
30 47 6
30 48 6
30 49 9
30 50 4
30 51 2
30 52 6
30 53 7
30 54 3
30 55 9
30 56 7
30 57 5
30 58 3
30 59 5
30 60 6
30 61 10
30 62 6
30 63 6
30 64 4
30 65 3
30 66 5
30 67 7
30 68 6
30 69 2
30 70 5
30 71 7
30 72 5
30 73 6
30 74 9
30 75 7
30 76 10
30 77 3
30 78 8
30 79 7
30 80 7
30 81 4
30 82 7
30 83 5
30 84 8
30 85 9
30 86 4
30 87 4
30 88 8
30 89 4
30 90 5
30 91 7
30 92 5
30 93 6
30 94 6
30 95 8
30 96 7
30 97 3
30 98 8
30 99 11
30 100 4
31 1 8
31 2 7
31 3 6
31 4 7
31 5 9
31 6 5
31 7 5
31 8 4
31 9 9
31 10 4
31 11 1
31 12 4
31 13 12
31 14 5
31 15 3
31 16 8
31 17 7
31 18 6
31 19 7
31 20 3
31 21 3
31 22 4
31 23 5
31 24 3
31 25 6
31 26 4
31 27 6
31 28 5
31 29 5
31 30 7
31 31 5
31 32 11
31 33 7
31 34 3
31 35 6
31 36 5
31 37 6
31 38 6
31 39 6
31 40 7
31 41 6
31 42 13
31 43 3
31 44 6
31 45 6
31 46 6
31 47 1
31 48 9
31 49 8
31 50 15
31 51 7
31 52 6
31 53 6
31 54 4
31 55 8
31 56 4
31 57 7
31 58 10
31 59 2
31 60 8
31 61 6
31 62 4
31 63 7
31 64 3
31 65 5
31 66 12
31 67 6
31 68 5
31 69 3
31 70 6
31 71 4
31 72 14
31 73 10
31 75 6
31 76 5
31 77 4
31 78 6
31 79 2
31 80 6
31 81 2
31 82 5
31 83 7
31 84 4
31 85 5
31 86 2
31 87 2
31 88 4
31 89 9
31 90 7
31 91 6
31 92 7
31 93 2
31 94 11
31 95 8
31 96 4
31 97 6
31 98 5
31 99 5
31 100 9
32 1 6
32 2 4
32 3 6
32 4 8
32 5 3
32 6 9
32 7 10
32 8 8
32 9 11
32 10 5
32 11 10
32 12 4
32 13 6
32 14 14
32 15 4
32 16 1
32 17 3
32 18 4
32 19 8
32 20 6
32 21 6
32 22 6
32 23 9
32 24 4
32 25 6
32 26 2
32 27 5
32 28 5
32 29 5
32 30 5
32 31 6
32 32 6
32 33 7
32 34 2
32 35 14
32 36 7
32 37 10
32 38 4
32 39 11
32 40 2
32 41 6
32 42 5
32 43 9
32 44 13
32 45 8
32 46 6
32 47 6
32 48 6
32 49 6
32 50 10
32 51 6
32 52 6
32 53 2
32 54 3
32 55 7
32 56 3
32 57 5
32 58 10
32 59 3
32 60 7
32 61 6
32 62 2
32 63 6
32 64 5
32 65 5
32 66 5
32 67 6
32 68 5
32 69 3
32 70 11
32 71 3
32 72 9
32 73 5
32 74 11
32 75 5
32 76 11
32 77 2
32 78 5
32 79 10
32 80 2
32 81 7
32 82 5
32 83 4
32 84 8
32 85 13
32 86 7
32 87 2
32 88 5
32 89 6
32 90 6
32 91 3
32 92 7
32 93 4
32 94 4
32 95 3
32 96 7
32 97 7
32 98 5
32 99 9
32 100 4
33 1 2
33 2 4
33 3 7
33 4 3
33 5 3
33 6 8
33 7 11
33 8 6
33 9 5
33 10 3
33 11 2
33 12 4
33 13 6
33 14 4
33 15 6
33 16 8
33 17 5
33 18 9
33 19 4
33 20 6
33 21 6
33 22 9
33 23 9
33 24 7
33 25 6
33 26 2
33 27 5
33 28 6
33 29 2
33 30 5
33 31 3
33 32 11
33 33 8
33 34 9
33 35 9
33 36 6
33 37 7
33 38 5
33 39 5
33 40 9
33 41 9
33 43 2
33 44 9
33 45 9
33 46 7
33 47 6
33 48 6
33 49 2
33 50 4
33 51 9
33 52 7
33 53 8
33 54 6
33 55 7
33 56 3
33 57 2
33 58 3
33 59 7
33 60 5
33 61 4
33 62 6
33 63 5
33 64 6
33 65 6
33 66 7
33 67 5
33 68 4
33 69 5
33 70 5
33 71 8
33 72 7
33 73 3
33 74 6
33 75 8
33 76 6
33 77 1
33 78 5
33 79 5
33 80 7
33 81 12
33 82 4
33 83 5
33 84 2
33 85 5
33 86 4
33 87 8
33 88 2
33 89 5
33 90 10
33 91 5
33 92 10
33 93 2
33 94 2
33 95 10
33 96 7
33 97 4
33 98 6
33 99 5
33 100 9
34 1 9
34 2 3
34 3 9
34 4 4
34 5 6
34 6 8
34 7 5
34 8 7
34 9 11
34 10 6
34 11 10
34 12 5
34 13 4
34 14 3
34 15 7
34 16 5
34 17 7
34 18 9
34 19 6
34 20 11
34 21 3
34 22 3
34 23 5
34 24 8
34 25 7
34 26 12
34 27 5
34 28 5
34 29 7
34 30 6
34 31 9
34 32 8
34 33 5
34 34 17
34 35 3
34 36 6
34 37 4
34 38 8
34 39 4
34 40 6
34 41 3
34 42 4
34 43 3
34 44 5
34 45 7
34 46 5
34 47 5
34 48 7
34 49 4
34 50 2
34 51 5
34 52 8
34 53 3
34 54 5
34 55 6
34 56 5
34 57 10
34 58 6
34 59 2
34 60 3
34 61 7
34 62 7
34 63 11
34 64 7
34 65 5
34 66 4
34 67 9
34 68 4
34 69 6
34 70 10
34 71 5
34 72 8
34 73 2
34 74 4
34 75 9
34 76 4
34 77 6
34 78 4
34 79 10
34 80 3
34 81 3
34 82 4
34 83 7
34 84 4
34 85 7
34 86 7
34 87 7
34 88 7
34 89 6
34 90 5
34 91 11
34 92 6
34 93 5
34 94 9
34 95 6
34 96 4
34 97 8
34 98 2
34 99 8
34 100 7
35 4 1
35 6 2
35 34 2
35 39 1
35 53 1
35 62 1
35 87 1
35 88 2
35 98 1
35 99 2
36 4 1
36 14 1
36 23 1
36 39 1
36 69 1
36 71 1
36 80 1
36 99 1
37 15 1
37 17 1
37 22 1
37 23 1
37 48 1
37 75 1
37 97 1
38 59 1
38 79 1
38 90 1
39 34 1
39 57 1
39 67 1
39 74 1
39 85 1
39 98 1
39 100 1
40 26 1
40 55 1
40 62 2
40 87 1
41 31 1
41 37 1
41 38 3
41 65 1
41 80 1
41 87 1
41 90 2
42 15 1
42 54 1
42 81 1
42 86 1
42 90 1
43 15 1
43 32 1
43 69 1
44 18 1
44 21 1
44 34 1
44 67 1
44 74 1
44 76 1
44 86 1
44 87 1
45 35 1
45 38 1
45 44 1
45 75 1
45 80 2
45 91 1
46 13 1
46 30 1
46 33 1
46 35 1
46 45 1
46 54 1
46 71 1
46 84 1
46 85 1
46 86 1
47 6 1
47 10 1
47 16 1
47 36 1
47 50 1
47 59 1
47 62 1
47 73 1
47 93 1
47 100 1
48 14 1
48 23 1
48 31 1
48 91 1
48 92 1
49 4 1
49 14 1
49 19 1
49 23 1
49 40 1
49 53 1
49 57 1
49 82 1
50 5 1
50 32 1
50 34 2
50 35 1
50 49 1
50 85 1
50 96 1
51 13 1
51 38 1
51 41 1
51 61 1
51 70 1
52 1 1
52 27 1
52 52 1
52 63 1
52 76 1
52 77 1
52 91 1
53 17 1
53 30 1
53 34 1
53 42 1
53 47 1
53 56 1
53 67 1
53 80 1
53 85 1
54 11 1
54 12 1
54 28 1
54 32 1
54 37 2
54 38 1
54 54 2
54 92 1
54 93 1
54 97 1
55 9 1
55 17 1
55 34 1
55 45 1
55 79 1
56 7 1
56 29 1
56 34 1
56 37 1
56 60 1
56 66 1
56 89 1
57 4 2
57 10 1
57 19 1
57 28 1
57 29 1
57 34 1
57 39 1
57 40 1
57 41 1
57 55 1
57 61 1
57 76 1
58 14 1
58 24 1
58 38 1
58 42 1
58 56 1
58 75 2
58 93 1
58 94 1
58 96 1
59 35 2
59 49 1
59 52 1
59 63 1
59 82 1
60 28 1
60 48 1
60 57 1
61 9 1
61 19 1
61 70 1
61 79 1
62 6 1
62 7 1
62 11 1
62 29 1
62 79 1
63 6 1
63 21 1
63 26 1
63 27 1
63 30 1
63 40 1
63 58 2
63 82 1
64 2 1
64 12 1
64 17 1
64 26 1
64 28 1
64 37 1
64 49 1
64 69 1
64 73 1
65 4 1
65 11 1
65 41 1
65 62 1
65 63 1
66 24 1
66 28 1
66 43 1
66 49 1
66 51 1
66 86 1
66 87 1
66 92 1
66 99 1
67 14 1
67 35 1
67 42 1
67 48 1
67 49 1
67 50 1
67 52 1
67 54 1
67 58 1
67 77 1
67 79 1
68 3 1
68 5 4
68 7 1
68 8 7
68 9 5
68 10 3
68 12 1
68 17 1
68 18 2
68 19 4
68 20 1
68 21 1
68 22 1
68 25 5
68 27 1
68 28 1
68 29 1
68 31 1
68 32 5
68 34 2
68 37 2
68 40 1
68 44 8
68 45 6
68 46 12
68 50 12
68 51 1
68 52 1
68 53 1
68 55 9
68 58 4
68 61 2
68 62 2
68 63 1
68 64 7
68 66 2
68 67 8
68 68 1
68 70 9
68 73 9
68 74 1
68 76 1
68 77 10
68 78 9
68 79 3
68 82 6
68 83 6
68 87 4
68 89 1
68 92 3
68 94 2
68 96 2
68 97 9
68 98 1
68 100 1
69 3 1
69 4 1
69 6 1
69 8 6
69 9 12
69 10 13
69 12 1
69 14 1
69 18 7
69 19 9
69 21 1
69 23 2
69 25 6
69 27 2
69 28 3
69 29 1
69 30 2
69 32 7
69 33 1
69 35 1
69 36 1
69 37 1
69 38 1
69 40 3
69 44 7
69 45 2
69 46 12
69 48 1
69 50 9
69 55 8
69 56 2
69 58 9
69 59 2
69 61 1
69 62 1
69 64 5
69 66 7
69 67 8
69 68 1
69 69 1
69 70 10
69 71 2
69 73 3
69 74 1
69 76 1
69 77 6
69 78 4
69 79 5
69 82 5
69 83 8
69 85 1
69 87 3
69 89 2
69 92 6
69 93 1
69 95 3
69 97 5
69 98 1
70 2 1
70 3 2
70 5 1
70 7 1
70 8 7
70 9 6
70 10 5
70 12 2
70 14 2
70 18 5
70 19 3
70 20 1
70 22 1
70 24 1
70 25 10
70 26 2
70 31 1
70 32 9
70 33 2
70 34 1
70 36 2
70 37 1
70 44 7
70 45 10
70 46 9
70 48 1
70 49 1
70 50 4
70 53 1
70 55 14
70 56 1
70 57 1
70 58 7
70 59 2
70 60 1
70 61 1
70 64 4
70 66 10
70 67 6
70 69 1
70 70 10
70 71 2
70 72 2
70 73 3
70 77 6
70 78 7
70 79 4
70 82 9
70 83 6
70 85 1
70 87 17
70 90 1
70 92 1
70 93 1
70 97 3
71 1 2
71 7 2
71 8 4
71 9 7
71 10 6
71 13 1
71 14 1
71 16 1
71 17 2
71 18 5
71 19 7
71 21 1
71 23 2
71 25 6
71 26 1
71 27 3
71 29 2
71 30 2
71 31 1
71 32 7
71 35 1
71 36 1
71 37 1
71 43 2
71 44 3
71 45 14
71 46 10
71 48 3
71 49 2
71 50 10
71 53 1
71 55 7
71 58 4
71 61 1
71 63 1
71 64 11
71 66 18
71 67 9
71 68 1
71 70 14
71 73 9
71 74 1
71 77 9
71 78 3
71 79 6
71 82 6
71 83 8
71 87 5
71 92 9
71 93 1
71 97 12
72 4 1
72 5 1
72 6 1
72 8 6
72 9 10
72 10 5
72 12 2
72 13 1
72 16 1
72 18 2
72 19 5
72 24 1
72 25 8
72 29 2
72 30 1
72 31 1
72 32 6
72 38 1
72 39 2
72 40 1
72 42 1
72 44 3
72 45 5
72 46 5
72 47 1
72 48 2
72 50 1
72 52 1
72 53 1
72 55 8
72 56 2
72 63 1
72 64 6
72 66 10
72 67 3
72 68 1
72 70 4
72 71 1
72 73 1
72 74 2
72 76 1
72 77 9
72 78 4
72 79 8
72 82 6
72 83 5
72 86 1
72 87 3
72 88 2
72 92 6
72 94 1
72 96 1
72 97 3
72 98 1
72 99 1
72 100 1
73 1 10
73 2 3
73 6 2
73 7 1
73 9 2
73 11 1
73 12 1
73 17 1
73 21 1
73 22 3
73 24 5
73 25 1
73 27 1
73 28 1
73 29 8
73 30 1
73 31 1
73 35 1
73 40 5
73 42 2
73 44 1
73 47 4
73 48 11
73 49 7
73 50 1
73 52 1
73 54 1
73 55 2
73 56 3
73 58 1
73 59 6
73 60 3
73 61 1
73 65 5
73 67 1
73 68 1
73 69 2
73 70 1
73 72 6
73 73 1
73 74 7
73 75 1
73 76 1
73 77 1
73 79 1
73 80 1
73 81 2
73 85 8
73 86 1
73 87 1
73 89 1
73 90 1
73 91 2
73 93 1
73 94 11
73 96 5
73 99 2
73 100 1
74 1 3
74 2 11
74 3 1
74 7 2
74 11 1
74 13 1
74 15 3
74 17 1
74 18 2
74 24 14
74 25 1
74 26 1
74 28 1
74 29 7
74 39 2
74 40 5
74 44 1
74 45 1
74 46 1
74 47 7
74 48 6
74 49 7
74 52 1
74 54 1
74 55 1
74 56 9
74 58 1
74 59 2
74 60 12
74 61 1
74 63 1
74 64 1
74 65 4
74 67 1
74 68 1
74 72 8
74 74 9
74 77 1
74 78 1
74 79 1
74 81 1
74 83 1
74 84 1
74 85 6
74 86 1
74 87 1
74 88 1
74 89 3
74 90 1
74 92 1
74 94 8
74 95 1
74 96 4
74 98 1
74 100 3
75 4 1
75 5 1
75 6 1
75 7 1
75 8 3
75 9 2
75 10 3
75 12 1
75 14 3
75 16 1
75 18 3
75 19 7
75 20 1
75 24 1
75 25 3
75 26 1
75 28 1
75 32 5
75 34 1
75 37 1
75 39 1
75 40 3
75 41 1
75 42 1
75 44 9
75 45 5
75 46 4
75 47 1
75 49 1
75 50 6
75 51 1
75 54 2
75 55 5
75 56 1
75 57 1
75 58 4
75 64 8
75 66 8
75 67 7
75 69 1
75 70 5
75 72 2
75 73 7
75 77 12
75 78 6
75 79 5
75 80 1
75 82 7
75 83 4
75 84 2
75 87 10
75 88 1
75 89 1
75 91 1
75 92 9
75 97 7
75 99 1
75 100 2
76 1 2
76 2 1
76 3 9
76 5 2
76 7 1
76 8 1
76 9 2
76 11 1
76 12 3
76 13 9
76 14 5
76 20 1
76 27 6
76 29 1
76 30 6
76 32 1
76 33 1
76 34 6
76 36 6
76 38 1
76 41 3
76 43 1
76 44 1
76 45 1
76 46 1
76 47 1
76 48 1
76 49 1
76 51 1
76 53 1
76 54 3
76 61 13
76 63 1
76 67 1
76 68 1
76 69 6
76 71 6
76 72 1
76 74 4
76 76 2
76 77 2
76 80 7
76 83 2
76 84 5
76 93 2
76 94 2
76 95 1
76 96 1
76 97 1
76 98 9
76 99 7
77 1 1
77 4 1
77 6 1
77 7 1
77 8 6
77 9 2
77 10 4
77 11 1
77 12 2
77 14 2
77 15 1
77 18 4
77 19 3
77 25 7
77 26 1
77 32 8
77 35 2
77 37 1
77 39 2
77 44 4
77 45 8
77 46 9
77 49 2
77 50 9
77 51 1
77 52 2
77 55 5
77 56 2
77 58 4
77 59 2
77 60 1
77 62 2
77 64 10
77 66 5
77 67 2
77 68 2
77 69 1
77 70 3
77 72 1
77 73 4
77 75 1
77 77 7
77 78 9
77 79 6
77 82 9
77 83 10
77 86 1
77 87 4
77 90 2
77 91 2
77 92 4
77 95 2
77 97 4
77 98 1
77 99 2
78 2 1
78 8 6
78 9 4
78 10 3
78 11 1
78 15 1
78 16 1
78 17 1
78 18 13
78 19 6
78 23 1
78 24 1
78 25 7
78 26 1
78 27 1
78 29 1
78 31 2
78 32 6
78 38 1
78 39 3
78 40 2
78 43 1
78 44 3
78 45 4
78 46 7
78 47 3
78 50 4
78 52 1
78 53 3
78 54 2
78 55 10
78 56 1
78 58 4
78 59 1
78 60 1
78 61 1
78 62 1
78 63 1
78 64 10
78 66 7
78 67 7
78 69 1
78 70 9
78 72 3
78 73 6
78 74 2
78 75 1
78 77 6
78 78 9
78 79 5
78 82 3
78 83 6
78 84 1
78 85 1
78 86 1
78 87 5
78 91 1
78 92 6
78 93 1
78 95 2
78 96 1
78 97 7
78 100 1
79 1 3
79 2 6
79 5 1
79 10 1
79 11 1
79 15 1
79 16 1
79 19 1
79 22 2
79 24 4
79 25 1
79 26 2
79 28 1
79 29 7
79 30 1
79 31 1
79 34 2
79 35 2
79 36 1
79 38 3
79 40 5
79 47 3
79 48 7
79 49 3
79 50 1
79 53 2
79 56 7
79 58 1
79 59 5
79 60 1
79 61 3
79 63 1
79 65 7
79 66 1
79 70 2
79 71 1
79 72 7
79 73 1
79 74 6
79 75 1
79 82 1
79 83 1
79 84 1
79 85 5
79 88 2
79 91 1
79 93 1
79 94 2
79 95 1
79 96 8
79 97 1
79 99 1
79 100 1
80 1 2
80 2 1
80 4 1
80 6 1
80 8 3
80 9 2
80 10 4
80 13 1
80 14 1
80 18 2
80 19 4
80 22 1
80 23 1
80 24 1
80 25 5
80 26 2
80 27 1
80 32 4
80 33 1
80 34 1
80 36 2
80 37 1
80 39 1
80 40 1
80 41 3
80 43 2
80 44 7
80 45 4
80 46 7
80 49 1
80 50 6
80 51 1
80 52 1
80 55 8
80 58 2
80 61 2
80 62 2
80 64 7
80 65 2
80 66 6
80 67 4
80 68 3
80 69 2
80 70 4
80 73 8
80 77 3
80 78 6
80 79 7
80 81 3
80 82 7
80 83 6
80 84 1
80 85 1
80 86 1
80 87 6
80 88 1
80 90 1
80 92 6
80 93 1
80 96 1
80 97 4
80 98 2
80 99 1
81 1 2
81 3 1
81 4 3
81 5 5
81 6 15
81 7 11
81 11 4
81 14 2
81 15 4
81 16 8
81 17 7
81 19 5
81 20 7
81 21 7
81 22 5
81 23 7
81 26 5
81 28 6
81 29 1
81 30 1
81 31 8
81 33 4
81 34 2
81 35 4
81 36 1
81 38 6
81 39 5
81 42 2
81 43 3
81 45 1
81 50 1
81 51 3
81 52 4
81 53 3
81 55 1
81 57 6
81 61 2
81 62 7
81 63 1
81 66 1
81 67 1
81 69 1
81 71 1
81 72 1
81 74 1
81 75 8
81 76 1
81 80 2
81 81 4
81 82 2
81 83 1
81 84 1
81 85 1
81 86 4
81 88 1
81 89 5
81 90 8
81 91 7
81 93 9
81 94 2
81 95 6
81 99 1
81 100 4
82 1 12
82 2 13
82 6 1
82 9 6
82 14 2
82 15 1
82 17 1
82 18 1
82 21 1
82 22 2
82 23 1
82 24 8
82 29 8
82 30 2
82 31 1
82 35 1
82 36 1
82 38 1
82 40 9
82 44 1
82 47 14
82 48 13
82 49 7
82 52 4
82 53 1
82 56 9
82 57 1
82 58 1
82 59 4
82 60 11
82 61 1
82 62 1
82 64 1
82 65 10
82 67 2
82 70 1
82 72 4
82 74 12
82 75 2
82 76 2
82 77 2
82 80 1
82 81 1
82 83 1
82 85 6
82 86 1
82 88 1
82 89 1
82 91 1
82 94 6
82 96 5
82 98 1
82 99 2
82 100 1
83 1 5
83 2 4
83 3 1
83 8 1
83 10 1
83 11 1
83 14 1
83 15 3
83 24 5
83 29 7
83 31 1
83 32 1
83 35 1
83 37 2
83 38 1
83 40 6
83 41 1
83 42 1
83 43 2
83 46 1
83 47 4
83 48 5
83 49 15
83 50 1
83 51 2
83 53 1
83 54 1
83 55 1
83 56 7
83 57 1
83 59 5
83 60 8
83 62 1
83 65 12
83 66 2
83 68 1
83 70 2
83 72 10
83 73 2
83 74 6
83 77 1
83 78 2
83 80 1
83 85 3
83 86 2
83 94 7
83 95 1
83 96 5
83 97 1
84 1 7
84 2 6
84 5 1
84 6 1
84 7 1
84 8 1
84 9 2
84 10 1
84 11 1
84 13 1
84 14 1
84 16 1
84 18 1
84 19 1
84 21 1
84 23 1
84 24 4
84 25 2
84 28 1
84 29 7
84 31 1
84 33 1
84 34 1
84 40 6
84 41 1
84 43 1
84 44 3
84 47 11
84 48 6
84 49 8
84 50 2
84 52 1
84 56 12
84 59 3
84 60 11
84 65 2
84 66 1
84 68 1
84 72 1
84 73 1
84 74 6
84 82 1
84 85 8
84 86 1
84 90 1
84 93 1
84 94 4
84 96 9
84 97 1
85 1 1
85 2 1
85 3 4
85 7 2
85 12 4
85 13 8
85 14 11
85 16 1
85 17 1
85 21 1
85 22 2
85 24 1
85 26 1
85 27 4
85 30 8
85 33 2
85 34 2
85 35 2
85 36 7
85 41 12
85 44 2
85 45 1
85 48 1
85 49 2
85 51 1
85 54 5
85 55 2
85 60 1
85 61 11
85 68 3
85 69 6
85 70 1
85 71 11
85 74 1
85 76 6
85 77 1
85 80 7
85 81 1
85 83 1
85 84 10
85 85 2
85 87 1
85 88 2
85 90 1
85 91 1
85 94 1
85 95 2
85 98 5
85 99 4
85 100 1
86 1 7
86 2 6
86 5 2
86 9 2
86 11 1
86 12 1
86 13 1
86 18 1
86 19 1
86 21 2
86 22 2
86 24 4
86 29 5
86 30 1
86 31 1
86 32 2
86 36 1
86 38 1
86 39 2
86 40 12
86 41 1
86 44 1
86 46 2
86 47 6
86 48 9
86 49 4
86 50 2
86 51 1
86 52 1
86 56 6
86 57 1
86 59 6
86 60 7
86 64 1
86 65 5
86 66 1
86 67 1
86 70 1
86 71 1
86 72 6
86 73 3
86 74 3
86 76 1
86 82 3
86 85 7
86 91 2
86 93 1
86 94 12
86 95 2
86 96 8
86 97 1
86 100 1
87 7 2
87 8 7
87 9 13
87 10 6
87 11 4
87 17 1
87 18 9
87 19 9
87 24 1
87 25 4
87 31 1
87 32 6
87 33 1
87 36 1
87 37 1
87 44 7
87 45 3
87 46 7
87 47 1
87 50 9
87 51 1
87 55 2
87 58 11
87 63 2
87 64 9
87 65 1
87 66 7
87 67 4
87 68 1
87 69 2
87 70 9
87 72 2
87 73 5
87 77 4
87 78 7
87 79 3
87 80 1
87 82 10
87 83 7
87 84 1
87 86 1
87 87 5
87 92 8
87 97 7
87 100 2
88 2 1
88 3 2
88 4 3
88 5 6
88 6 3
88 7 5
88 10 1
88 11 6
88 13 1
88 15 5
88 16 11
88 17 11
88 20 4
88 21 5
88 22 6
88 23 3
88 24 1
88 26 5
88 28 7
88 30 1
88 31 6
88 33 1
88 35 6
88 37 11
88 38 5
88 39 3
88 40 3
88 42 3
88 43 3
88 44 2
88 45 1
88 46 2
88 51 7
88 52 10
88 53 4
88 57 4
88 60 1
88 62 4
88 63 8
88 67 2
88 69 1
88 70 1
88 74 1
88 75 3
88 76 1
88 77 1
88 78 1
88 79 1
88 81 6
88 82 1
88 83 1
88 84 1
88 86 8
88 87 1
88 88 7
88 89 7
88 90 2
88 91 5
88 92 2
88 93 5
88 95 3
88 96 2
88 97 1
88 99 2
88 100 7
89 2 1
89 4 2
89 7 2
89 8 8
89 9 10
89 10 2
89 11 1
89 12 1
89 14 2
89 17 1
89 18 6
89 19 7
89 20 1
89 25 11
89 27 1
89 28 2
89 31 1
89 32 6
89 34 1
89 35 1
89 37 1
89 41 1
89 44 6
89 45 3
89 46 10
89 47 1
89 49 4
89 50 6
89 53 1
89 55 6
89 57 2
89 58 4
89 59 1
89 60 2
89 61 1
89 64 7
89 66 3
89 67 4
89 69 2
89 70 11
89 71 1
89 73 7
89 76 1
89 77 4
89 78 4
89 79 8
89 82 8
89 83 5
89 87 4
89 89 1
89 90 2
89 92 2
89 93 1
89 94 1
89 95 1
89 96 1
89 97 10
89 100 1
90 3 2
90 4 1
90 6 1
90 8 5
90 9 6
90 10 5
90 13 1
90 17 2
90 18 4
90 19 8
90 23 1
90 25 8
90 29 1
90 30 1
90 32 3
90 33 2
90 34 4
90 36 1
90 37 1
90 38 1
90 43 1
90 44 4
90 45 5
90 46 6
90 49 1
90 50 5
90 55 5
90 58 8
90 61 2
90 64 8
90 66 11
90 67 4
90 70 9
90 73 5
90 74 4
90 77 5
90 78 2
90 79 3
90 82 4
90 83 4
90 86 1
90 87 8
90 91 1
90 92 7
90 93 1
90 95 1
90 96 2
90 97 7
90 98 1
90 99 2
91 1 7
91 2 8
91 3 1
91 8 1
91 12 1
91 17 1
91 20 1
91 21 1
91 23 2
91 24 11
91 26 1
91 29 11
91 30 1
91 32 1
91 35 2
91 37 2
91 40 5
91 42 1
91 43 1
91 47 3
91 48 4
91 49 8
91 51 2
91 52 1
91 55 1
91 56 10
91 57 1
91 58 2
91 59 6
91 60 4
91 61 1
91 62 1
91 64 1
91 65 6
91 68 1
91 71 1
91 72 6
91 74 4
91 78 1
91 80 1
91 84 1
91 85 10
91 86 1
91 87 1
91 89 1
91 92 2
91 94 7
91 96 9
91 97 1
91 98 1
91 99 1
92 2 1
92 3 1
92 4 1
92 6 1
92 7 1
92 8 14
92 9 6
92 10 5
92 18 4
92 19 4
92 21 1
92 22 1
92 24 1
92 25 5
92 26 1
92 27 3
92 29 1
92 30 1
92 31 2
92 32 6
92 33 3
92 38 2
92 44 5
92 45 6
92 46 7
92 47 1
92 48 1
92 49 3
92 50 4
92 51 1
92 55 6
92 58 9
92 59 1
92 62 1
92 64 11
92 65 1
92 66 14
92 67 5
92 69 2
92 70 5
92 72 1
92 73 4
92 75 2
92 77 9
92 78 5
92 79 8
92 80 1
92 81 1
92 82 7
92 83 5
92 84 1
92 87 4
92 88 1
92 90 1
92 91 1
92 92 10
92 93 1
92 97 6
92 98 1
93 1 1
93 3 1
93 4 6
93 5 3
93 6 10
93 7 8
93 8 1
93 9 1
93 11 9
93 15 6
93 16 9
93 17 12
93 20 8
93 21 12
93 22 4
93 23 2
93 25 4
93 26 11
93 28 7
93 30 1
93 31 8
93 33 5
93 35 9
93 36 1
93 37 6
93 38 10
93 39 10
93 41 1
93 42 11
93 43 7
93 44 1
93 48 2
93 51 6
93 52 6
93 53 2
93 55 1
93 57 6
93 58 1
93 59 1
93 62 4
93 63 4
93 64 1
93 67 3
93 72 1
93 73 1
93 74 2
93 75 6
93 76 1
93 78 1
93 81 9
93 82 1
93 83 1
93 85 1
93 86 3
93 88 8
93 89 16
93 90 8
93 91 4
93 92 2
93 93 4
93 94 3
93 95 7
93 96 1
93 100 8
94 4 2
94 5 2
94 7 1
94 8 8
94 9 6
94 10 8
94 11 1
94 13 2
94 18 3
94 19 3
94 22 1
94 24 2
94 25 5
94 27 2
94 29 1
94 30 1
94 31 1
94 32 4
94 39 1
94 43 1
94 44 8
94 45 4
94 46 8
94 49 2
94 50 4
94 55 8
94 57 1
94 58 8
94 59 2
94 60 2
94 63 1
94 64 7
94 65 1
94 66 6
94 67 2
94 70 15
94 71 3
94 72 1
94 73 5
94 74 1
94 75 1
94 76 1
94 77 3
94 78 6
94 79 4
94 81 1
94 82 9
94 83 3
94 84 1
94 87 6
94 90 3
94 92 4
94 96 2
94 97 4
94 98 1
94 100 3
95 2 1
95 3 1
95 5 1
95 8 7
95 9 5
95 10 3
95 11 2
95 12 2
95 14 4
95 15 3
95 17 2
95 18 8
95 19 4
95 20 2
95 21 1
95 23 1
95 25 3
95 26 1
95 28 1
95 32 5
95 34 2
95 36 3
95 37 3
95 38 1
95 41 1
95 44 10
95 45 7
95 46 6
95 50 8
95 51 2
95 52 1
95 53 2
95 55 4
95 57 2
95 58 8
95 61 1
95 64 4
95 66 2
95 67 2
95 68 1
95 70 9
95 72 1
95 73 5
95 77 6
95 78 5
95 79 6
95 82 9
95 83 9
95 84 2
95 86 1
95 87 8
95 92 7
95 93 1
95 94 1
95 97 7
95 98 1
96 7 1
96 8 8
96 9 3
96 10 5
96 16 1
96 17 1
96 18 4
96 19 15
96 21 1
96 22 1
96 25 4
96 26 1
96 28 1
96 30 1
96 31 1
96 32 5
96 35 1
96 39 1
96 42 1
96 43 1
96 44 6
96 45 5
96 46 6
96 50 5
96 55 2
96 57 2
96 58 10
96 64 4
96 66 8
96 67 4
96 70 8
96 73 6
96 74 1
96 77 5
96 78 5
96 79 3
96 80 1
96 82 5
96 83 6
96 87 5
96 88 2
96 90 1
96 92 7
96 93 3
96 97 7
96 100 1
97 2 1
97 3 1
97 4 5
97 5 5
97 6 2
97 7 10
97 10 1
97 11 1
97 12 1
97 13 1
97 15 3
97 16 5
97 17 3
97 20 2
97 21 2
97 22 4
97 23 5
97 26 3
97 27 1
97 28 6
97 31 2
97 33 4
97 34 1
97 35 8
97 36 2
97 37 7
97 38 7
97 39 9
97 40 3
97 41 2
97 42 4
97 43 12
97 44 2
97 48 1
97 49 1
97 51 3
97 52 4
97 53 2
97 54 1
97 57 5
97 58 1
97 59 1
97 61 2
97 62 7
97 63 7
97 65 2
97 66 1
97 69 1
97 70 1
97 72 2
97 73 1
97 75 4
97 76 1
97 78 1
97 81 6
97 84 1
97 86 8
97 88 8
97 89 2
97 90 4
97 91 8
97 92 1
97 93 4
97 94 1
97 95 5
97 96 1
97 99 1
97 100 6
98 1 2
98 6 1
98 7 2
98 8 5
98 9 5
98 10 3
98 15 1
98 17 2
98 18 4
98 19 5
98 22 1
98 25 4
98 29 1
98 30 1
98 31 2
98 32 9
98 35 1
98 43 1
98 44 9
98 45 4
98 46 6
98 49 1
98 50 9
98 51 1
98 54 2
98 55 7
98 57 2
98 58 7
98 62 1
98 64 6
98 66 5
98 67 3
98 68 1
98 70 2
98 71 4
98 73 8
98 74 3
98 75 1
98 76 2
98 77 7
98 78 8
98 79 4
98 80 1
98 82 4
98 83 8
98 87 8
98 89 1
98 92 5
98 95 1
98 97 8
99 1 1
99 3 1
99 4 5
99 5 3
99 6 3
99 7 1
99 11 9
99 14 1
99 15 6
99 16 2
99 17 4
99 19 1
99 20 3
99 21 4
99 22 2
99 23 6
99 26 5
99 28 5
99 31 7
99 33 6
99 34 1
99 35 1
99 37 6
99 38 6
99 39 5
99 41 1
99 42 2
99 43 2
99 45 2
99 46 4
99 50 1
99 51 2
99 52 4
99 53 2
99 54 1
99 57 9
99 58 1
99 60 1
99 61 1
99 62 4
99 63 6
99 64 1
99 67 2
99 68 2
99 69 3
99 70 2
99 71 2
99 73 2
99 75 6
99 79 1
99 81 3
99 84 1
99 86 1
99 87 1
99 88 4
99 89 4
99 90 6
99 91 9
99 92 1
99 93 5
99 95 3
99 99 2
99 100 6
100 1 6
100 2 4
100 8 1
100 12 1
100 16 2
100 19 2
100 20 1
100 21 1
100 22 1
100 24 7
100 27 1
100 28 1
100 29 6
100 34 1
100 35 1
100 40 5
100 41 2
100 45 1
100 47 5
100 48 7
100 49 7
100 50 1
100 55 1
100 56 11
100 59 1
100 60 8
100 62 1
100 64 2
100 65 5
100 68 1
100 69 1
100 72 2
100 74 3
100 76 3
100 81 1
100 82 1
100 83 1
100 85 2
100 86 1
100 89 2
100 94 14
100 96 8
100 97 1
101 2 1
101 3 2
101 4 1
101 8 4
101 9 3
101 10 2
101 11 1
101 13 3
101 14 2
101 15 1
101 16 2
101 18 8
101 19 7
101 20 1
101 22 2
101 23 1
101 25 3
101 26 2
101 29 2
101 30 1
101 31 6
101 32 3
101 34 1
101 37 1
101 38 1
101 39 1
101 40 1
101 41 1
101 42 1
101 43 1
101 44 4
101 45 6
101 46 8
101 47 1
101 49 2
101 50 7
101 51 1
101 53 1
101 54 2
101 55 4
101 56 2
101 58 6
101 59 1
101 61 1
101 64 5
101 65 1
101 66 5
101 67 4
101 68 1
101 69 2
101 70 4
101 73 9
101 76 1
101 77 2
101 78 9
101 79 7
101 82 3
101 83 9
101 87 5
101 89 1
101 91 1
101 92 3
101 93 2
101 94 1
101 96 1
101 97 10
101 98 2
101 99 2
101 100 2
102 2 1
102 3 1
102 4 1
102 6 1
102 8 7
102 9 5
102 10 3
102 11 2
102 18 2
102 19 4
102 20 1
102 24 1
102 25 4
102 27 1
102 29 1
102 32 6
102 34 1
102 36 1
102 38 2
102 39 2
102 44 4
102 45 3
102 46 4
102 47 1
102 50 3
102 51 1
102 53 2
102 55 8
102 56 2
102 57 1
102 58 4
102 60 1
102 62 1
102 64 5
102 66 5
102 67 2
102 70 7
102 72 2
102 73 5
102 74 1
102 75 1
102 77 4
102 78 17
102 79 7
102 82 7
102 83 8
102 84 2
102 85 1
102 87 2
102 88 2
102 90 2
102 91 1
102 92 6
102 93 1
102 94 2
102 95 1
102 96 1
102 97 8
102 100 1
103 1 6
103 2 10
103 3 1
103 6 3
103 7 1
103 10 1
103 12 2
103 14 4
103 15 1
103 17 1
103 19 1
103 22 1
103 24 4
103 28 2
103 29 3
103 30 1
103 31 1
103 34 4
103 40 2
103 41 1
103 42 2
103 44 1
103 45 4
103 47 9
103 48 7
103 49 9
103 55 1
103 56 10
103 57 1
103 58 1
103 59 2
103 60 5
103 63 1
103 65 9
103 66 1
103 69 1
103 70 2
103 71 1
103 72 6
103 74 8
103 76 1
103 77 1
103 78 1
103 80 1
103 81 1
103 85 8
103 86 2
103 89 1
103 91 2
103 93 1
103 94 6
103 96 5
103 98 1
104 1 1
104 2 1
104 3 1
104 4 1
104 6 1
104 8 3
104 9 3
104 10 9
104 15 1
104 18 5
104 19 5
104 23 1
104 25 5
104 27 1
104 28 1
104 29 2
104 30 1
104 32 4
104 33 1
104 37 1
104 38 1
104 39 1
104 43 2
104 44 10
104 45 6
104 46 8
104 47 2
104 48 1
104 50 5
104 51 1
104 52 2
104 54 1
104 55 6
104 58 6
104 59 1
104 62 2
104 64 5
104 66 8
104 67 3
104 68 3
104 70 1
104 73 7
104 74 2
104 77 7
104 78 6
104 79 2
104 82 4
104 83 3
104 84 1
104 85 1
104 87 9
104 89 2
104 90 1
104 91 1
104 92 6
104 97 5
104 98 2
104 100 1
105 1 7
105 2 5
105 5 1
105 6 1
105 9 1
105 13 3
105 14 1
105 16 1
105 17 1
105 18 4
105 19 1
105 20 2
105 21 1
105 22 2
105 24 2
105 25 3
105 29 4
105 33 1
105 34 1
105 37 1
105 38 1
105 39 2
105 40 10
105 44 1
105 46 1
105 47 5
105 48 1
105 49 4
105 50 1
105 52 2
105 54 1
105 55 1
105 56 5
105 57 1
105 59 3
105 60 3
105 62 1
105 63 1
105 64 1
105 65 8
105 66 1
105 71 1
105 72 4
105 74 11
105 75 2
105 78 1
105 80 1
105 81 1
105 83 2
105 84 2
105 85 4
105 88 1
105 93 1
105 94 6
105 96 4
105 98 2
106 1 1
106 3 3
106 7 1
106 9 4
106 12 2
106 13 4
106 14 7
106 17 2
106 20 1
106 23 1
106 24 1
106 27 6
106 30 3
106 33 1
106 34 3
106 35 1
106 36 5
106 41 5
106 42 1
106 43 1
106 45 1
106 46 1
106 47 3
106 48 2
106 49 1
106 50 2
106 52 2
106 54 5
106 56 1
106 58 1
106 59 1
106 60 1
106 61 3
106 66 2
106 68 6
106 69 2
106 71 3
106 72 1
106 76 5
106 79 2
106 80 4
106 84 6
106 87 1
106 88 2
106 89 2
106 90 1
106 92 1
106 93 1
106 94 1
106 96 1
106 98 7
106 99 5
107 3 6
107 8 1
107 10 1
107 11 3
107 12 3
107 13 8
107 14 6
107 15 1
107 17 1
107 18 1
107 19 1
107 21 1
107 22 1
107 23 2
107 24 2
107 25 1
107 27 10
107 28 1
107 29 1
107 30 2
107 31 2
107 32 1
107 34 3
107 36 5
107 37 1
107 38 1
107 40 1
107 41 9
107 43 1
107 47 2
107 48 1
107 51 3
107 54 5
107 56 1
107 57 1
107 60 1
107 61 2
107 64 2
107 66 1
107 68 1
107 69 13
107 71 2
107 73 1
107 75 2
107 76 2
107 77 1
107 79 2
107 80 5
107 81 1
107 82 1
107 84 5
107 85 1
107 87 3
107 88 1
107 93 1
107 94 2
107 95 2
107 98 3
107 99 4
107 100 2
108 1 2
108 4 5
108 5 12
108 6 3
108 7 6
108 8 1
108 9 1
108 11 7
108 14 1
108 15 6
108 16 1
108 17 6
108 20 3
108 21 3
108 22 8
108 23 9
108 26 8
108 27 1
108 28 6
108 30 2
108 31 4
108 33 6
108 34 2
108 35 4
108 36 1
108 37 5
108 38 3
108 39 5
108 41 1
108 42 2
108 43 10
108 44 2
108 45 2
108 49 1
108 51 4
108 52 5
108 53 2
108 54 1
108 57 11
108 58 1
108 60 1
108 62 8
108 63 7
108 67 2
108 68 2
108 71 1
108 75 9
108 81 4
108 82 1
108 83 1
108 86 6
108 88 5
108 89 6
108 90 6
108 91 4
108 92 1
108 93 6
108 95 10
108 97 2
108 100 3
109 1 7
109 2 4
109 3 1
109 5 1
109 6 2
109 8 2
109 9 2
109 12 1
109 18 1
109 19 1
109 22 2
109 24 1
109 25 1
109 26 1
109 28 1
109 29 8
109 30 2
109 32 1
109 40 9
109 46 2
109 47 4
109 48 5
109 49 7
109 50 1
109 56 6
109 58 1
109 59 6
109 60 11
109 61 1
109 65 4
109 67 1
109 72 6
109 73 1
109 74 4
109 75 1
109 76 1
109 77 1
109 78 1
109 79 2
109 83 1
109 85 4
109 86 1
109 87 2
109 90 1
109 94 4
109 96 8
109 97 2
109 98 1
109 99 1
110 1 1
110 2 5
110 4 1
110 5 2
110 8 1
110 9 1
110 11 1
110 14 1
110 15 1
110 20 2
110 24 2
110 26 2
110 27 1
110 28 1
110 29 3
110 30 1
110 31 1
110 39 1
110 40 11
110 42 1
110 43 1
110 44 2
110 47 5
110 48 9
110 49 4
110 55 1
110 56 7
110 57 1
110 58 1
110 59 8
110 60 9
110 63 1
110 65 8
110 69 1
110 72 3
110 74 11
110 75 1
110 78 4
110 83 4
110 84 2
110 85 8
110 86 1
110 89 1
110 91 1
110 92 1
110 93 1
110 94 7
110 95 1
110 96 8
110 97 1
110 98 1
110 99 2
111 1 8
111 2 3
111 5 1
111 6 1
111 11 2
111 12 2
111 13 3
111 14 1
111 24 10
111 25 3
111 26 1
111 29 6
111 30 1
111 32 3
111 34 1
111 36 1
111 37 2
111 38 2
111 40 15
111 43 1
111 44 1
111 45 1
111 46 1
111 47 8
111 48 2
111 49 18
111 51 2
111 53 1
111 56 5
111 58 1
111 59 3
111 60 6
111 63 1
111 64 2
111 65 8
111 66 1
111 68 1
111 71 1
111 72 7
111 74 2
111 78 1
111 79 1
111 82 1
111 84 1
111 85 3
111 86 1
111 87 2
111 94 6
111 95 1
111 96 6
111 100 1
112 1 1
112 3 1
112 5 2
112 8 7
112 9 8
112 10 2
112 11 1
112 13 1
112 16 2
112 18 10
112 19 6
112 20 2
112 22 1
112 23 1
112 25 3
112 27 1
112 28 1
112 29 1
112 30 2
112 31 1
112 32 6
112 34 2
112 35 1
112 36 1
112 37 2
112 42 2
112 44 1
112 45 4
112 46 4
112 47 1
112 48 3
112 50 4
112 55 5
112 56 1
112 58 8
112 60 1
112 62 1
112 63 1
112 64 2
112 65 1
112 66 5
112 67 4
112 70 4
112 73 3
112 74 1
112 77 6
112 78 10
112 79 4
112 82 14
112 83 6
112 86 1
112 87 4
112 88 1
112 90 2
112 92 7
112 97 6
112 100 1
113 2 1
113 3 1
113 5 1
113 7 2
113 8 4
113 9 16
113 10 13
113 18 3
113 19 8
113 20 1
113 21 1
113 22 1
113 24 3
113 25 5
113 28 2
113 32 8
113 38 2
113 42 1
113 43 1
113 44 10
113 45 2
113 46 6
113 50 9
113 53 1
113 55 4
113 56 1
113 57 1
113 58 7
113 63 1
113 64 9
113 65 2
113 66 5
113 67 8
113 69 1
113 70 4
113 72 2
113 73 5
113 77 9
113 78 4
113 79 6
113 81 1
113 82 10
113 83 4
113 85 2
113 86 1
113 87 7
113 89 1
113 91 2
113 92 9
113 93 2
113 94 1
113 95 2
113 96 1
113 97 6
113 98 1
113 99 1
114 3 2
114 8 5
114 9 15
114 10 3
114 11 1
114 13 1
114 15 1
114 18 3
114 19 3
114 23 1
114 24 1
114 25 5
114 27 1
114 28 1
114 29 2
114 32 11
114 35 1
114 39 1
114 40 1
114 42 1
114 43 1
114 44 3
114 45 5
114 46 7
114 47 1
114 49 2
114 50 7
114 51 1
114 52 1
114 54 1
114 55 4
114 57 1
114 58 3
114 60 1
114 64 6
114 65 1
114 66 8
114 67 4
114 69 1
114 70 6
114 71 1
114 73 3
114 75 1
114 76 2
114 77 6
114 78 7
114 79 5
114 81 1
114 82 6
114 83 4
114 84 2
114 85 1
114 87 11
114 88 1
114 90 1
114 92 8
114 93 1
114 97 14
115 4 1
115 5 2
115 6 1
115 7 2
115 8 2
115 9 4
115 10 4
115 16 1
115 18 5
115 19 9
115 21 1
115 23 1
115 24 2
115 25 6
115 26 1
115 27 2
115 30 2
115 32 7
115 33 1
115 34 1
115 39 1
115 44 5
115 45 3
115 46 9
115 47 1
115 50 4
115 52 2
115 53 1
115 55 7
115 56 1
115 58 6
115 59 2
115 60 1
115 61 2
115 62 2
115 64 5
115 66 7
115 67 5
115 68 1
115 69 1
115 70 5
115 72 1
115 73 3
115 77 11
115 78 7
115 79 7
115 80 2
115 81 5
115 82 6
115 83 5
115 87 8
115 90 1
115 92 10
115 96 1
115 97 5
115 100 1
116 1 1
116 4 1
116 5 1
116 6 2
116 8 4
116 9 8
116 10 4
116 13 1
116 16 2
116 18 5
116 19 7
116 24 1
116 25 8
116 26 1
116 31 1
116 32 9
116 33 1
116 34 2
116 35 1
116 36 1
116 38 2
116 43 1
116 44 8
116 45 3
116 46 2
116 47 3
116 50 3
116 51 1
116 55 9
116 58 10
116 60 1
116 62 1
116 64 6
116 65 1
116 66 7
116 67 3
116 68 1
116 69 1
116 70 3
116 71 1
116 73 5
116 75 1
116 77 8
116 78 8
116 79 5
116 80 2
116 82 11
116 83 3
116 84 1
116 85 1
116 86 1
116 87 7
116 90 1
116 91 1
116 92 7
116 97 6
116 98 1
116 99 2
117 1 1
117 2 1
117 3 2
117 4 5
117 5 7
117 6 3
117 7 8
117 8 1
117 10 1
117 11 7
117 13 1
117 15 6
117 16 9
117 17 6
117 19 1
117 20 6
117 21 3
117 22 7
117 23 5
117 26 5
117 28 9
117 29 1
117 31 4
117 33 2
117 35 4
117 36 2
117 37 4
117 38 13
117 39 6
117 41 1
117 42 4
117 43 5
117 48 1
117 51 1
117 52 5
117 53 3
117 54 1
117 55 1
117 57 3
117 62 6
117 63 3
117 64 1
117 65 1
117 69 1
117 70 2
117 71 1
117 74 2
117 75 16
117 76 2
117 81 4
117 82 1
117 83 1
117 84 1
117 86 4
117 87 1
117 88 4
117 89 5
117 90 5
117 91 6
117 92 1
117 93 4
117 94 1
117 95 10
117 100 10
118 3 1
118 4 1
118 5 6
118 6 3
118 7 8
118 9 1
118 11 9
118 13 1
118 15 11
118 16 9
118 17 6
118 19 1
118 20 4
118 21 6
118 22 8
118 23 7
118 24 1
118 25 1
118 26 6
118 28 1
118 29 1
118 30 2
118 31 6
118 33 6
118 35 4
118 36 2
118 37 9
118 38 6
118 39 9
118 42 6
118 43 4
118 44 1
118 45 1
118 46 1
118 48 2
118 49 1
118 51 3
118 52 11
118 53 10
118 54 1
118 55 2
118 56 1
118 57 5
118 59 1
118 62 6
118 63 2
118 64 1
118 67 2
118 68 2
118 69 1
118 72 1
118 75 10
118 76 1
118 80 2
118 81 3
118 82 4
118 83 1
118 84 1
118 86 4
118 87 1
118 88 8
118 89 4
118 90 2
118 91 2
118 93 6
118 95 10
118 98 1
118 99 1
118 100 5
119 1 1
119 3 1
119 6 1
119 8 7
119 9 5
119 10 7
119 13 2
119 15 1
119 17 2
119 18 8
119 19 8
119 25 4
119 27 1
119 28 1
119 29 1
119 32 6
119 35 2
119 38 1
119 40 1
119 43 1
119 44 3
119 45 10
119 46 6
119 47 2
119 49 1
119 50 4
119 55 6
119 57 1
119 58 4
119 59 2
119 60 1
119 61 1
119 63 1
119 64 7
119 66 1
119 67 6
119 69 1
119 70 5
119 73 5
119 76 1
119 77 4
119 78 4
119 79 4
119 80 1
119 82 6
119 83 5
119 87 2
119 90 1
119 92 4
119 93 1
119 95 1
119 97 1
119 100 1
120 2 1
120 4 6
120 5 9
120 6 6
120 7 2
120 8 1
120 11 6
120 13 1
120 15 4
120 16 6
120 17 5
120 20 1
120 21 8
120 22 7
120 23 6
120 26 10
120 28 5
120 31 4
120 33 3
120 35 3
120 37 1
120 38 3
120 39 7
120 41 2
120 42 6
120 43 3
120 44 1
120 48 1
120 49 2
120 51 5
120 52 7
120 53 8
120 57 2
120 58 1
120 62 3
120 63 5
120 64 2
120 65 1
120 71 1
120 72 1
120 73 1
120 75 7
120 76 1
120 77 1
120 78 1
120 81 6
120 85 1
120 86 7
120 88 6
120 89 9
120 90 5
120 91 4
120 93 2
120 94 1
120 95 8
120 96 2
120 99 1
120 100 12
121 2 1
121 3 1
121 8 3
121 9 9
121 10 4
121 13 3
121 15 1
121 18 7
121 19 5
121 21 1
121 25 5
121 28 1
121 30 2
121 32 11
121 37 1
121 39 1
121 40 1
121 44 3
121 45 4
121 46 12
121 49 1
121 50 7
121 55 7
121 58 5
121 60 1
121 61 1
121 64 7
121 66 5
121 67 3
121 70 8
121 72 1
121 73 9
121 77 5
121 78 5
121 79 7
121 82 7
121 83 3
121 87 5
121 89 1
121 90 1
121 92 5
121 93 2
121 95 1
121 96 1
121 97 9
121 99 1
121 100 2
122 1 5
122 2 3
122 3 1
122 6 2
122 7 1
122 9 2
122 11 1
122 12 2
122 15 1
122 16 1
122 20 1
122 21 1
122 24 5
122 26 1
122 29 1
122 35 1
122 40 7
122 42 1
122 46 1
122 47 5
122 48 2
122 49 10
122 50 2
122 51 1
122 52 2
122 56 7
122 57 1
122 58 1
122 59 2
122 60 6
122 65 8
122 67 1
122 71 1
122 72 5
122 74 5
122 76 1
122 77 1
122 79 1
122 80 1
122 84 1
122 85 4
122 87 1
122 89 4
122 94 10
122 95 1
122 96 4
122 100 1
123 1 10
123 2 4
123 4 2
123 5 2
123 7 1
123 11 1
123 15 1
123 17 1
123 18 1
123 19 3
123 20 1
123 21 1
123 23 1
123 24 5
123 27 2
123 29 8
123 34 1
123 35 1
123 37 2
123 38 1
123 40 4
123 42 1
123 46 1
123 47 7
123 48 3
123 49 9
123 51 1
123 53 3
123 54 2
123 56 9
123 57 2
123 58 1
123 59 3
123 60 7
123 62 1
123 65 5
123 69 2
123 71 1
123 72 6
123 73 2
123 74 2
123 75 1
123 76 3
123 77 2
123 80 2
123 81 1
123 83 1
123 84 3
123 85 3
123 86 2
123 87 1
123 93 1
123 94 3
123 96 11
123 97 1
123 99 3
123 100 1
124 1 8
124 2 10
124 4 1
124 5 1
124 8 1
124 11 1
124 12 1
124 13 1
124 14 1
124 17 1
124 19 1
124 22 2
124 24 4
124 25 1
124 26 1
124 28 2
124 29 8
124 30 1
124 32 1
124 37 1
124 39 2
124 40 8
124 43 1
124 47 10
124 48 11
124 49 2
124 51 1
124 54 1
124 56 7
124 57 1
124 58 1
124 59 7
124 60 2
124 63 1
124 65 3
124 66 1
124 68 1
124 70 1
124 71 1
124 72 9
124 74 10
124 75 1
124 76 2
124 77 2
124 78 2
124 80 1
124 82 1
124 85 5
124 91 1
124 92 1
124 94 2
124 95 1
124 96 6
124 97 1
124 98 2
125 2 1
125 21 1
125 39 1
125 63 1
125 69 1
125 71 1
125 72 1
125 82 1
125 95 1
125 98 1
126 5 1
126 7 1
126 18 1
126 19 1
126 34 1
126 65 1
126 94 1
127 43 1
127 49 1
127 69 1
127 75 1
128 22 1
128 29 1
128 31 1
128 54 1
128 61 1
128 67 1
128 71 2
128 75 1
128 83 2
128 86 1
128 95 1
128 97 1
129 2 2
129 39 1
129 69 1
129 73 1
129 76 1
130 8 1
130 12 1
130 39 1
130 86 1
131 9 1
131 19 1
131 20 1
131 31 1
131 38 1
131 44 1
131 67 1
131 71 1
132 40 1
132 56 1
132 65 1
132 84 1
133 3 1
133 8 1
133 13 2
133 30 1
133 41 1
133 44 1
133 48 1
133 59 1
133 73 1
133 74 1
133 100 1
134 11 1
134 31 1
134 36 1
134 42 1
134 84 1
134 89 1
135 4 1
135 14 1
135 17 1
135 35 1
135 46 1
135 52 1
135 57 1
135 64 2
135 69 1
135 75 1
135 78 1
135 88 2
135 96 1
136 22 1
136 49 1
136 76 1
137 15 1
137 22 1
137 36 1
137 42 1
137 49 1
137 53 1
137 58 1
137 66 1
138 3 1
138 23 1
138 24 2
138 34 1
138 66 1
138 87 1
139 10 2
139 22 1
139 26 1
139 45 1
139 55 1
139 61 1
139 69 1
139 81 1
139 89 1
139 95 1
140 21 1
140 33 1
140 36 1
140 51 1
140 61 1
140 66 1
140 68 1
141 19 1
141 38 1
141 45 1
141 66 1
141 69 1
141 77 1
141 82 1
141 96 2
142 28 1
142 47 2
142 85 1
142 99 1
143 11 1
143 14 1
143 35 1
143 37 1
143 45 1
143 46 1
143 48 1
143 51 2
143 63 1
144 1 1
144 17 1
144 20 1
144 60 1
144 68 1
145 11 1
145 35 1
145 47 1
145 48 1
145 55 1
145 63 1
145 68 1
145 80 1
145 82 1
146 9 1
146 21 1
146 22 1
146 48 1
146 51 2
146 81 1
146 84 1
147 5 2
147 34 1
147 48 2
147 57 1
147 73 1
148 3 1
148 78 1
148 79 1
148 83 1
149 2 1
149 3 1
149 42 1
149 85 1
149 100 1
150 2 1
150 7 1
150 17 1
150 22 1
150 28 1
151 61 1
151 68 1
151 84 1
152 1 1
152 9 1
152 29 1
152 30 1
152 40 1
152 85 1
153 46 1
153 52 1
153 62 1
154 23 1
154 29 1
154 32 1
154 83 1
154 90 1
155 16 1
155 41 1
155 47 1
155 48 1
155 65 1
155 66 1
155 77 1
155 95 1
156 7 2
156 9 1
156 14 1
156 16 1
156 56 1
156 61 1
156 62 1
156 80 1
156 91 1
157 31 1
157 33 2
157 72 1
157 73 1
157 91 1
158 1 1
158 8 1
158 17 1
158 22 1
158 24 1
158 38 1
158 42 1
158 43 1
158 45 1
158 69 1
158 78 1
158 80 1
158 87 1
159 26 1
159 38 1
159 47 1
159 51 1
159 58 1
159 69 1
159 84 2
159 93 1
159 96 1
160 30 1
160 33 1
160 67 1
161 7 1
161 14 1
161 20 1
161 32 1
161 34 1
161 54 1
161 67 1
161 74 1
161 77 1
161 95 1
162 12 1
162 21 1
162 57 1
162 60 2
162 64 2
162 69 1
162 87 1
162 93 1
163 28 1
163 58 1
163 59 1
163 96 1
164 4 2
164 9 1
164 14 1
164 73 1
164 81 1
164 85 1
165 3 1
165 11 1
165 19 2
165 41 1
165 69 1
166 2 1
166 9 1
166 23 1
166 24 1
166 26 1
166 59 1
166 66 1
166 69 1
166 70 1
166 87 1
166 98 1
167 3 1
167 12 2
167 21 1
167 23 1
167 42 1
167 43 1
167 65 1
167 88 1
167 94 1
168 40 1
168 67 1
168 70 1
168 71 1
169 1 1
169 15 1
169 30 1
169 39 1
169 41 1
169 54 1
169 68 1
170 6 1
170 7 2
170 15 1
170 22 1
170 44 1
170 45 1
170 47 1
170 63 1
170 75 1
170 84 1
171 23 1
171 32 2
171 45 1
172 4 1
172 12 1
172 17 1
172 35 1
172 47 1
172 54 1
172 57 1
172 59 1
173 16 1
173 23 1
173 44 1
173 45 2
173 48 1
173 59 1
173 79 1
173 91 1
174 38 1
174 49 1
174 53 1
174 65 1
174 73 1
175 18 1
175 45 1
175 46 1
175 59 1
175 85 1
175 86 1
176 15 1
176 22 1
176 57 1
176 62 2
176 64 1
176 77 1
177 10 1
177 25 1
177 42 1
177 63 1
177 78 1
177 86 1
177 88 1
177 89 1
178 17 1
178 28 1
178 39 1
178 44 1
178 60 1
178 65 1
179 20 1
179 32 1
179 48 1
179 59 1
179 60 1
179 76 1
179 81 1
180 4 1
180 15 1
180 26 2
180 29 1
180 38 1
180 45 1
180 59 2
180 70 1
180 83 1
181 18 1
181 47 1
181 49 1
181 68 1
181 74 1
182 9 1
182 22 1
182 25 1
182 51 1
182 55 1
182 79 1
183 3 1
183 7 1
183 18 1
183 25 2
183 36 1
183 39 1
183 52 1
183 53 1
183 67 1
183 78 2
183 95 1
183 97 1
183 100 1
184 1 1
184 4 1
184 8 1
184 12 1
184 16 1
184 35 1
184 45 1
184 67 1
184 89 1
184 95 1
185 1 1
185 7 1
185 10 1
185 19 1
185 20 1
185 51 1
185 54 2
185 55 1
185 58 1
185 94 1
186 7 1
186 36 1
186 49 1
186 58 1
186 59 1
186 74 1
186 78 1
187 36 1
187 41 1
187 43 1
187 93 1
188 4 1
188 33 1
188 65 1
188 94 1
188 100 1
189 1 1
189 6 1
189 20 1
189 37 1
189 43 1
189 66 1
189 85 1
189 97 1
190 3 1
190 22 1
190 31 1
190 37 1
190 43 1
190 45 1
190 46 2
190 57 1
190 76 2
190 78 1
190 89 3
190 99 1
191 2 1
191 10 1
191 34 1
191 64 1
192 27 1
192 31 1
192 39 1
192 42 1
192 47 1
192 59 3
192 61 1
192 69 1
192 75 1
192 77 1
192 90 1
192 95 1
193 18 1
193 23 1
193 27 1
193 29 2
193 40 1
193 45 1
193 50 1
193 57 2
193 67 1
193 83 1
193 87 1
194 7 1
194 31 1
194 33 1
194 50 1
194 73 1
194 86 1
195 7 1
195 10 1
195 24 1
195 35 1
195 49 2
195 51 1
195 60 1
195 65 3
195 84 1
195 85 1
195 90 1
195 98 1
196 25 1
196 42 1
196 45 1
196 58 1
196 67 1
196 89 1
197 17 1
197 24 1
197 49 1
197 58 1
197 78 1
197 84 1
197 86 1
197 92 1
198 7 1
198 25 1
198 46 1
198 56 1
198 81 1
198 87 1
198 89 1
199 4 1
199 33 1
199 49 1
199 77 1
199 85 1
199 98 1
200 15 1
200 19 1
200 35 1
200 44 1
200 53 1
200 55 1
200 57 1
200 60 1
200 73 1
200 81 2
201 37 1
201 52 1
201 63 1
201 65 1
201 74 1
201 97 1
202 18 1
202 27 1
202 44 1
202 65 1
202 75 1
202 88 1
203 3 1
203 33 1
203 48 2
203 53 1
203 65 1
203 91 1
204 12 1
204 29 1
204 43 1
204 45 1
204 46 1
204 60 1
204 62 1
204 76 1
205 4 1
205 8 1
205 12 1
205 28 1
205 42 1
205 68 1
205 71 1
205 81 1
205 85 1
205 87 1
205 89 1
206 6 1
206 8 1
206 32 1
206 33 1
206 84 1
206 89 1
206 93 1
207 3 1
207 5 1
207 10 1
207 41 1
207 99 1
208 5 1
208 8 1
208 10 1
208 16 2
208 34 1
208 59 1
208 96 1
209 3 1
209 25 1
209 41 1
209 42 1
209 45 1
209 63 1
209 95 1
210 26 1
210 36 1
210 50 1
210 83 1
211 23 1
211 80 1
211 81 1
211 100 1
212 15 1
212 26 1
212 29 1
212 67 1
212 70 1
213 19 1
213 21 1
213 43 1
213 44 1
213 48 1
213 67 1
213 92 2
214 9 2
214 14 1
214 17 1
214 31 1
214 60 1
214 66 1
214 90 1
214 99 1
215 4 1
215 5 1
215 17 2
215 48 1
215 80 1
215 90 1
216 10 2
216 21 2
216 40 1
216 79 1
216 97 2
217 25 1
217 54 1
217 68 1
217 77 1
217 81 1
218 7 1
218 25 1
218 31 1
218 33 1
218 37 1
218 73 1
218 91 1
218 92 1
219 1 1
219 13 1
219 18 1
219 26 1
219 35 1
219 38 1
219 66 1
220 18 1
220 41 1
220 54 2
220 56 1
220 74 1
220 91 1
220 96 1
221 20 1
221 27 1
221 72 1
222 30 1
222 41 1
222 61 1
222 78 1
222 94 1
222 98 1
223 3 1
223 6 1
223 20 1
223 53 1
223 70 1
224 27 1
224 48 1
224 53 1
224 77 1
225 14 1
225 19 1
225 21 1
225 42 1
225 54 1
225 64 1
225 71 1
225 73 1
226 1 1
226 10 1
226 24 1
226 48 1
226 69 1
226 80 1
226 81 1
226 94 1
227 6 1
227 24 1
227 31 1
227 53 1
227 57 1
227 63 1
227 76 1
227 84 1
227 92 1
228 7 1
228 11 1
228 31 1
228 32 1
228 40 1
228 65 1
228 71 1
228 79 1
229 26 1
229 56 1
229 57 1
229 81 1
229 98 1
230 38 1
230 46 1
230 57 1
230 74 1
230 93 1
231 4 1
231 13 1
231 37 1
231 40 1
231 41 1
231 44 1
231 69 2
231 92 1
232 77 2
232 84 1
233 61 1
233 77 1
234 10 2
234 19 1
234 23 1
234 27 1
234 63 1
234 64 1
234 81 2
234 96 1
235 11 1
235 34 1
235 50 1
235 61 1
235 78 1
235 92 1
235 98 1
236 13 1
236 25 1
236 44 1
236 78 1
236 100 1
237 10 1
237 20 1
237 26 1
237 33 2
237 56 1
237 84 1
238 9 1
238 36 1
238 63 1
238 85 1
238 94 1
238 100 1
239 7 1
239 10 1
239 51 1
239 75 2
239 79 2
239 81 1
239 83 1
240 14 1
240 56 1
240 88 1
241 27 1
241 28 1
241 32 2
241 37 1
241 100 1
242 16 1
242 22 1
242 34 1
242 48 1
242 59 3
242 91 1
242 92 1
243 21 1
243 29 2
243 55 1
243 59 1
243 60 1
243 64 1
243 65 1
243 69 1
243 79 1
243 85 1
244 13 1
244 16 1
244 18 1
244 37 1
244 47 1
244 50 1
244 62 1
244 65 1
244 81 1
244 85 1
245 55 1
245 85 1
245 92 1
246 2 1
246 37 2
246 59 1
246 78 1
246 79 1
246 83 1
246 91 2
247 16 1
247 28 1
247 31 1
247 41 1
247 50 1
247 60 1
247 64 1
247 78 1
247 100 1
248 24 2
248 31 1
248 74 1
249 2 1
249 11 1
249 15 2
249 54 1
249 93 1
249 97 1
249 100 2
250 5 1
250 7 1
250 20 1
250 21 1
250 51 1
250 56 1
250 57 1
251 20 1
251 25 1
251 30 1
251 37 1
251 70 1
251 90 1
251 92 1
251 99 1
251 100 1
252 2 1
252 16 1
252 20 1
252 32 1
252 59 1
252 65 1
252 86 1
253 18 1
253 22 1
253 29 1
253 48 1
253 82 1
254 1 1
254 20 1
254 44 1
254 62 1
254 69 1
254 70 1
254 96 1
255 4 1
255 7 1
255 25 1
255 47 1
255 48 1
255 59 1
255 77 1
255 81 1
255 84 1
255 87 1
256 6 1
256 20 1
256 32 2
256 35 1
256 54 1
256 88 1
257 13 1
257 14 1
257 20 1
257 33 2
257 36 1
257 52 2
257 79 1
257 87 1
257 98 1
258 5 1
258 36 1
258 37 1
258 38 1
258 43 1
258 75 1
258 86 1
258 100 1
259 4 1
259 6 1
259 7 1
259 24 1
259 26 1
259 37 1
259 47 1
259 52 1
259 55 1
259 61 1
259 72 1
259 88 1
260 20 1
260 41 1
260 45 1
260 70 1
261 14 1
261 17 1
261 33 1
261 51 1
261 57 1
261 68 1
261 83 1
262 14 1
262 33 1
262 50 1
262 62 1
262 64 1
262 75 1
262 85 1
263 3 1
263 31 1
263 39 1
263 41 1
263 42 1
263 44 1
263 64 1
263 66 1
263 67 1
263 77 1
264 16 1
264 24 1
264 72 1
264 92 1
265 4 1
265 25 2
265 35 1
265 41 1
265 72 1
265 89 1
265 96 1
266 28 1
266 31 1
266 34 1
266 37 1
266 39 1
266 49 1
266 54 1
266 62 1
266 83 1
267 16 1
267 46 1
267 61 1
267 68 1
267 82 1
267 85 1
268 18 1
268 35 1
268 39 1
268 43 1
268 73 1
269 15 1
269 32 1
269 41 1
269 91 1
270 27 1
270 38 1
270 47 1
270 48 1
270 79 1
270 88 1
271 5 1
271 11 1
271 13 1
271 18 1
271 22 1
271 37 1
271 55 1
271 58 1
271 64 1
271 67 1
271 77 1
271 81 1
271 87 1
271 99 1
271 100 1
272 2 1
272 40 1
272 78 1
272 89 1
272 98 1
273 2 1
273 13 1
273 39 1
273 77 1
273 89 1
274 9 1
274 10 1
274 59 1
274 61 1
274 73 1
274 78 1
274 89 1
275 6 1
275 7 1
275 12 1
275 14 1
275 22 1
275 63 1
275 85 1
276 2 1
276 8 1
276 21 1
276 55 1
276 64 1
276 77 1
276 99 1
277 2 1
277 6 1
277 22 1
277 50 1
277 71 1
277 77 1
277 82 1
277 98 1
277 99 1
277 100 1
278 1 1
278 45 2
278 52 1
278 53 1
278 89 1
278 90 1
278 95 1
279 17 1
279 42 1
279 50 2
279 54 1
279 55 1
279 65 1
280 2 1
280 44 1
280 53 1
280 99 1
281 7 1
281 8 1
281 10 1
281 35 1
281 39 1
281 44 1
281 58 1
281 64 1
281 65 1
281 76 1
281 82 1
282 1 1
282 27 1
282 36 1
282 47 1
282 91 2
283 2 1
283 4 1
283 33 1
283 59 1
283 65 1
283 72 1
283 73 1
283 93 1
283 95 1
284 1 1
284 18 1
284 28 1
284 34 1
284 41 2
284 48 1
284 59 1
284 60 1
284 63 1
284 68 1
285 3 1
285 4 1
285 5 1
285 34 1
285 46 1
285 53 1
285 73 1
285 90 1
286 6 1
286 19 2
286 26 1
286 29 2
286 69 1
286 75 1
286 76 1
286 85 1
286 93 1
287 20 1
287 22 1
287 39 2
287 40 1
287 51 1
287 64 1
287 68 1
287 83 1
287 97 1
288 19 1
288 22 1
288 70 1
288 86 1
289 9 1
289 18 1
289 36 1
289 44 1
289 53 1
289 56 1
289 73 1
289 76 1
289 78 1
289 88 1
289 90 1
289 98 1
289 100 1
290 4 1
290 55 1
290 73 1
291 8 1
291 17 1
291 22 1
291 24 1
291 31 1
291 37 1
291 44 1
292 33 1
292 34 1
292 39 1
292 45 1
292 63 1
292 67 1
292 76 1
292 85 1
293 10 1
293 16 1
293 19 1
293 32 1
293 35 1
293 42 1
293 50 1
293 62 1
293 71 1
293 73 1
293 77 1
293 86 1
293 87 1
293 99 1
294 4 1
294 35 2
294 71 1
294 80 1
294 83 1
294 88 1
294 89 1
294 90 1
294 98 1
295 12 1
295 26 1
295 34 1
295 47 2
295 50 1
295 97 1
296 23 1
296 46 1
296 56 1
296 62 1
296 63 1
296 65 1
296 88 1
296 89 1
296 98 1
296 100 1
297 5 1
297 9 1
297 14 1
297 16 1
297 24 2
297 39 1
297 55 1
297 60 1
298 10 1
298 18 1
298 26 1
298 59 1
298 67 1
298 83 1
299 28 1
299 59 1
299 67 1
299 80 1
299 86 1
300 38 1
300 53 1
300 59 1
300 77 1
300 94 1
300 97 1
301 3 1
301 4 1
301 34 1
301 69 1
302 6 1
302 8 2
302 13 1
302 26 1
302 33 1
302 35 1
302 38 1
302 49 1
302 50 1
302 51 1
303 16 1
303 40 1
303 91 1
304 2 1
304 15 1
304 33 1
304 38 1
304 64 1
304 75 1
304 80 1
304 90 1
305 30 1
305 45 2
305 54 1
306 23 1
306 24 1
306 26 1
306 39 1
306 83 1
306 99 1
306 100 1
307 18 1
307 46 1
307 50 1
307 91 1
308 17 1
308 29 1
308 45 1
308 49 1
308 72 1
308 81 1
308 86 1
308 94 1
308 98 1
308 99 1
309 8 1
309 9 1
309 12 1
309 19 1
309 34 1
309 70 1
309 71 1
309 84 2
309 90 1
309 92 1
309 96 1
310 15 1
310 28 1
310 33 1
310 54 1
310 57 1
310 58 1
310 64 1
310 80 1
310 96 1
311 41 1
311 53 1
311 63 1
311 65 1
311 73 1
311 86 1
312 16 1
312 23 1
312 54 1
312 55 1
312 56 1
312 69 2
312 82 1
312 91 1
312 97 1
313 1 1
313 3 1
313 5 1
313 9 1
313 23 1
313 48 1
313 52 1
313 53 1
313 68 1
313 74 1
313 76 2
313 77 1
313 83 1
314 1 1
314 16 1
314 26 1
314 51 1
314 64 1
314 67 1
314 75 1
314 80 1
315 4 1
315 26 1
315 32 1
315 44 1
315 45 1
315 80 1
315 89 1
316 2 1
316 8 1
316 10 1
316 19 1
316 22 1
316 39 2
316 54 1
316 60 2
316 62 1
316 89 1
316 99 1
316 100 1
317 18 1
317 31 1
317 37 1
317 51 1
317 52 2
317 82 1
317 83 1
317 95 2
318 1 1
318 9 1
318 21 1
318 35 1
318 71 1
318 74 1
318 95 1
319 4 1
319 12 1
319 57 1
319 61 1
319 65 1
319 77 1
319 80 1
319 82 1
319 98 1
320 29 1
320 50 2
320 71 1
321 32 1
321 41 1
321 42 1
321 62 1
321 76 1
321 77 1
321 93 1
321 98 1
322 12 1
322 18 1
322 23 1
322 28 1
322 69 1
322 71 1
322 87 1
323 43 1
323 59 1
323 72 1
323 73 1
323 82 1
323 99 1
324 21 2
324 28 1
324 54 1
324 61 1
324 65 1
324 74 1
324 75 1
324 80 1
324 92 1
325 35 1
325 40 1
325 80 1
325 93 1
325 99 1
325 100 1
326 21 1
326 40 1
326 45 1
326 47 1
326 75 1
326 85 1
327 1 1
327 6 1
327 16 1
327 34 1
327 36 1
327 38 1
327 49 1
327 59 2
328 12 1
328 40 1
328 69 1
328 91 1
328 97 1
329 17 1
329 19 1
329 28 1
329 39 1
329 56 1
329 64 1
329 100 1
330 2 1
330 22 1
330 25 1
330 56 1
330 98 1
331 32 1
331 34 1
331 53 1
331 76 2
331 86 1
331 98 1
332 7 1
332 16 1
332 61 2
333 2 1
333 9 1
333 23 2
333 32 1
333 50 1
333 55 1
333 61 1
333 69 1
333 74 1
334 15 1
334 18 1
334 37 1
334 50 1
334 51 1
334 54 1
334 69 2
334 79 1
334 89 1
335 16 1
335 22 2
335 33 2
335 45 1
335 47 1
335 77 1
335 83 1
335 98 1
336 69 1
337 15 1
337 16 1
337 99 1
338 1 1
338 14 1
338 15 1
338 25 1
338 28 1
338 43 1
338 49 1
338 50 1
338 73 1
338 81 1
338 97 1
339 8 1
339 16 1
339 17 1
339 21 1
339 40 1
339 51 1
339 63 1
339 67 1
339 73 1
339 99 1
340 1 1
340 5 1
340 26 1
340 68 1
340 79 1
340 81 1
340 82 1
340 89 1
341 1 1
341 4 1
341 37 1
341 75 1
341 86 1
342 3 1
342 63 1
342 91 1
343 3 1
343 26 1
343 45 1
343 60 1
343 79 1
343 100 1
344 40 1
344 49 1
344 64 1
344 75 1
344 94 1
344 97 1
344 100 1
345 2 1
345 5 1
345 40 1
345 71 1
345 78 2
345 79 1
345 85 1
345 89 1
345 98 1
346 11 1
346 15 1
346 25 1
346 28 1
346 33 1
346 34 1
346 43 1
346 44 1
346 63 1
346 79 1
347 3 1
347 12 1
347 19 1
347 41 1
347 52 1
347 67 1
347 86 1
348 39 1
348 41 1
348 42 1
348 52 1
348 84 1
348 86 1
348 95 1
349 10 1
349 19 2
349 39 1
349 51 1
349 55 1
349 57 1
349 97 1
350 9 1
350 22 1
350 25 1
350 46 1
350 51 1
350 53 1
350 57 1
350 81 1
351 79 1
351 94 1
351 98 2
352 15 1
352 18 1
352 27 1
352 29 1
352 53 1
352 67 1
353 8 1
353 85 1
353 87 1
353 88 1
353 90 1
353 93 2
354 5 1
354 9 1
354 10 1
354 36 1
354 70 1
354 76 1
354 93 1
354 94 1
355 46 1
355 64 2
355 72 1
355 80 1
355 93 1
356 35 3
356 46 1
356 87 1
356 88 1
357 2 1
357 15 1
357 42 1
357 72 2
357 74 1
357 82 1
357 89 1
357 93 1
358 15 1
358 26 1
358 43 1
358 52 2
358 63 1
358 76 1
358 78 1
358 83 1
359 14 1
359 26 2
359 53 1
360 23 1
360 49 1
360 88 1
361 3 1
361 12 1
361 15 1
361 17 1
361 47 1
361 51 2
361 69 1
361 78 1
362 3 1
362 15 1
362 16 1
362 25 1
362 59 2
362 91 1
363 8 1
363 30 1
363 36 1
363 38 1
363 58 1
363 62 1
363 68 1
363 75 1
364 4 1
364 8 1
364 24 1
364 26 1
364 40 1
364 42 1
364 49 1
364 52 1
364 62 1
364 63 1
364 90 1
365 2 1
365 14 1
365 26 1
365 33 1
365 39 1
365 69 2
365 70 1
365 88 1
366 6 1
366 17 1
366 18 1
366 28 1
366 43 1
366 46 1
366 51 1
366 67 1
366 100 1
367 35 1
367 39 1
367 72 1
367 79 1
367 93 1
368 14 1
368 27 1
368 44 1
368 66 1
368 72 1
368 90 1
368 100 1
369 23 1
369 38 1
369 61 1
369 97 2
370 35 1
370 58 1
370 71 1
370 72 1
370 81 1
370 97 1
371 13 1
371 22 1
371 27 1
371 46 1
371 47 1
371 52 2
371 60 1
371 67 1
371 85 1
371 99 1
372 20 1
372 33 1
372 50 1
372 60 2
372 78 2
372 89 1
372 91 1
373 17 1
373 34 1
373 45 1
373 79 1
373 84 1
373 89 2
373 91 1
373 98 1
374 23 1
374 29 1
374 31 1
374 44 1
374 80 1
374 87 1
374 88 1
374 90 1
375 5 2
375 6 1
375 19 1
375 24 1
375 31 1
375 40 1
375 76 1
375 89 1
375 93 1
375 97 2
376 2 1
376 14 1
376 16 1
376 25 1
376 41 1
376 45 1
376 52 1
376 92 1
377 49 1
377 51 1
377 68 1
377 98 1
378 6 1
378 13 1
378 81 1
378 84 1
379 2 1
379 30 1
379 53 1
379 59 1
379 62 1
379 86 1
379 93 1
379 98 1
380 10 1
380 14 1
380 58 1
380 69 1
380 95 1
381 4 1
381 38 1
381 53 1
381 66 1
381 69 1
381 81 1
381 93 1
381 94 1
382 2 1
382 9 1
382 12 1
382 29 1
382 48 1
382 66 1
382 82 1
382 98 1
383 7 1
383 22 1
383 26 1
384 20 1
384 41 1
384 48 1
384 60 1
384 77 1
385 37 1
385 43 1
385 67 1
385 72 1
385 95 1
386 18 1
386 30 1
386 91 1
387 15 1
387 21 1
387 33 1
387 34 1
387 44 1
387 56 1
387 61 1
387 73 1
387 91 1
388 22 1
388 23 1
388 51 1
388 61 1
388 66 1
388 72 1
388 82 1
388 96 2
388 97 1
389 37 1
389 48 1
389 69 2
389 76 1
389 99 1
389 100 3
390 40 1
390 51 1
390 81 1
390 92 1
391 4 1
391 27 1
391 38 1
391 40 1
391 43 1
391 56 1
391 61 1
391 65 1
391 68 1
391 74 1
391 97 1
392 11 1
392 30 1
392 58 1
392 84 1
392 99 1
393 1 1
393 4 1
393 53 1
393 72 1
393 74 1
393 83 1
394 23 1
394 25 1
394 65 1
394 70 1
394 91 1
395 10 1
396 8 1
396 52 1
396 58 1
396 74 1
396 75 1
396 78 1
397 1 1
397 10 1
397 16 1
397 24 1
397 56 1
397 80 1
397 83 3
397 86 3
397 87 1
397 94 1
398 34 1
398 38 1
398 39 1
398 80 1
399 1 1
399 50 1
399 51 2
400 26 1
400 45 1
400 61 1
400 94 1
401 7 1
401 8 1
401 37 1
401 43 1
401 44 1
401 47 1
401 59 1
401 68 1
402 4 1
402 24 1
402 33 1
402 43 1
402 62 1
402 73 1
403 17 1
403 43 1
403 46 1
403 82 2
403 91 1
404 7 1
404 11 1
404 53 1
404 64 1
404 69 1
404 91 1
404 99 1
405 12 1
405 23 1
405 33 1
405 43 1
405 68 1
406 25 1
406 26 1
406 31 1
406 33 1
406 34 1
406 38 1
406 90 2
408 23 1
408 40 1
408 46 1
408 62 1
408 81 1
409 48 1
409 51 2
409 54 1
409 60 2
409 99 1
410 27 1
410 38 1
410 58 1
410 66 1
411 3 1
411 15 1
411 48 1
411 49 1
411 74 1
411 86 1
412 22 1
412 23 1
412 28 1
412 56 1
412 85 1
413 12 1
413 15 1
413 57 1
413 95 1
414 14 1
414 20 1
414 32 1
414 36 1
414 52 1
414 63 1
414 75 1
414 86 1
414 97 1
415 22 1
415 25 1
415 28 1
415 31 1
415 45 1
415 46 1
415 50 1
415 61 1
415 89 1
416 14 1
416 28 1
416 34 1
416 47 1
416 57 1
416 60 1
416 65 1
416 72 1
416 75 1
417 4 1
417 19 1
417 23 2
417 31 2
417 37 1
417 48 1
417 66 1
417 79 1
417 83 1
417 95 1
418 3 1
418 42 1
418 65 1
418 74 1
418 86 1
418 94 1
419 27 1
419 41 1
419 56 1
419 60 1
419 88 1
419 97 1
420 9 1
420 26 1
420 37 1
420 45 1
420 85 1
421 8 1
421 36 1
421 45 1
421 63 1
421 72 1
421 74 1
421 82 1
421 93 1
422 25 2
422 28 2
422 31 1
422 50 1
422 69 1
422 81 1
422 99 1
423 4 1
423 9 1
423 10 1
423 18 1
423 74 1
423 88 2
424 42 1
424 53 1
424 67 1
424 72 1
424 83 1
424 84 1
424 93 1
424 94 1
424 100 1
425 4 1
425 14 2
425 76 1
425 82 1
425 87 1
425 89 1
426 26 1
426 39 1
426 43 1
426 44 1
426 57 1
426 84 2
426 88 1
427 3 1
427 20 1
427 71 1
427 75 1
427 100 2
429 18 1
429 42 1
429 61 1
429 89 1
429 93 1
430 8 1
430 9 1
430 24 2
430 47 2
430 48 1
430 66 1
430 92 1
430 93 1
431 18 1
431 37 1
431 48 1
431 66 1
431 83 1
431 94 1
432 10 1
432 32 1
432 34 1
432 55 1
432 58 1
432 64 1
432 70 1
432 82 1
432 85 1
432 90 1
432 97 1
433 2 1
433 10 1
433 27 1
433 50 1
433 64 1
433 88 1
433 93 1
433 98 1
434 4 1
434 14 1
434 41 1
434 58 1
434 85 1
435 4 1
435 17 1
435 22 1
435 44 1
435 80 1
436 6 1
436 8 1
436 21 1
436 22 2
436 23 1
436 33 1
436 36 1
436 45 1
436 64 1
436 83 1
437 20 1
437 25 2
437 51 5
437 68 1
437 69 1
437 71 1
437 73 1
437 78 1
437 83 1
437 92 1
437 98 1
438 14 1
438 21 1
438 31 1
438 45 2
438 52 1
438 59 2
438 60 1
438 79 1
438 89 1
439 6 1
439 22 1
439 38 1
439 45 1
439 56 1
439 63 1
439 64 1
439 71 1
439 80 1
439 97 1
440 11 1
440 36 1
440 42 1
440 48 2
440 63 1
441 12 1
441 42 1
441 65 1
441 69 1
441 74 2
442 23 1
442 28 1
442 52 3
442 55 1
442 62 1
442 71 1
442 75 1
443 23 1
443 33 1
443 44 1
443 59 2
443 73 1
443 74 2
443 77 1
443 78 1
444 70 1
444 98 2
445 36 1
445 53 1
445 71 1
445 74 1
445 82 1
446 25 1
446 38 1
446 42 2
446 58 1
446 83 1
446 87 1
447 30 1
447 41 1
447 67 1
447 80 2
448 13 1
448 33 3
448 63 1
448 89 1
448 92 2
448 97 1
449 2 1
449 4 1
449 9 1
449 16 1
449 39 1
449 44 1
449 53 2
449 55 1
449 73 1
449 77 1
449 78 1
450 31 1
450 42 1
450 50 1
450 54 1
450 55 1
450 91 1
451 14 1
451 17 1
451 20 1
451 33 1
451 44 1
451 54 2
451 70 1
451 76 1
451 78 1
451 80 1
451 90 1
451 99 1
452 18 1
452 28 1
452 37 1
452 48 1
452 69 1
452 83 2
452 88 1
452 92 1
453 17 1
453 30 1
453 32 1
453 35 1
453 56 1
453 61 1
453 91 1
453 96 1
454 9 1
454 34 2
454 36 1
454 56 1
455 5 1
455 15 1
455 19 2
455 20 1
455 21 1
455 45 1
455 47 1
455 76 1
455 87 1
456 3 1
456 14 1
456 26 1
456 39 1
456 43 1
456 46 1
456 56 1
456 57 1
456 89 1
456 92 1
456 93 1
456 98 2
457 15 1
457 16 1
457 22 1
457 34 1
457 54 1
457 65 1
457 83 1
457 85 1
457 95 3
458 6 1
458 9 1
458 45 1
458 50 1
458 57 1
458 77 1
458 78 1
458 99 1
459 16 1
459 22 1
459 65 1
459 83 1
460 22 1
460 40 1
460 42 1
460 48 1
460 55 1
460 71 1
460 80 1
461 10 1
461 43 1
461 63 1
461 69 1
461 85 1
462 12 1
462 33 1
462 37 1
462 50 1
463 7 1
463 11 1
463 41 1
463 48 1
463 57 1
463 62 1
463 65 1
463 66 1
463 69 1
463 79 1
464 28 1
464 50 1
464 52 2
464 60 2
464 78 1
464 88 1
464 92 1
464 93 1
464 98 1
465 6 1
465 48 1
465 55 1
465 60 1
465 64 1
465 90 1
466 10 2
466 12 1
466 35 1
466 38 1
466 44 1
466 53 1
466 71 1
466 79 1
466 88 2
466 93 1
466 100 1
467 14 1
467 26 1
467 75 1
467 85 1
467 89 1
468 35 1
468 37 1
468 47 2
468 80 1
468 89 1
468 94 1
469 11 1
469 12 2
469 18 2
469 39 1
469 59 1
469 74 1
469 93 1
470 1 1
470 39 1
470 69 1
470 77 2
470 82 1
470 84 1
471 24 1
471 63 1
472 8 1
472 43 1
473 12 1
473 14 1
473 15 1
473 59 1
473 71 1
473 87 1
473 93 1
474 18 1
474 24 1
474 28 1
474 52 1
474 58 1
474 67 2
475 15 1
475 70 1
475 83 1
476 3 1
476 9 1
476 38 1
476 44 1
476 70 1
476 76 1
476 99 1
477 37 2
477 44 1
477 61 2
478 29 1
478 33 1
478 41 1
478 56 1
478 70 1
478 79 2
478 84 2
479 2 1
479 6 1
479 39 1
479 43 1
479 45 1
479 68 1
479 73 1
479 79 1
479 83 1
480 16 1
480 28 1
480 40 1
480 54 1
480 57 1
480 65 1
480 68 1
480 72 1
480 88 2
481 3 1
481 6 1
481 11 1
481 14 1
481 36 2
481 51 1
481 59 1
481 67 1
481 77 1
481 98 1
482 39 1
482 46 1
482 66 1
482 70 1
483 18 1
483 21 1
483 23 1
483 83 1
483 92 1
484 4 1
484 48 1
484 54 1
484 60 1
485 4 1
485 22 1
485 30 1
485 41 1
485 46 1
485 55 1
485 62 1
485 74 1
485 78 1
485 89 1
486 3 1
486 21 1
486 58 1
486 78 1
486 92 1
486 93 1
487 1 1
487 28 1
487 32 1
487 36 1
487 41 1
487 56 1
487 57 1
487 71 1
487 80 2
487 91 1
487 96 1
488 18 1
488 22 1
488 23 1
488 27 2
488 30 1
488 31 1
488 51 1
488 55 2
488 66 1
488 71 1
488 74 2
488 76 2
489 15 1
489 16 1
489 25 1
489 26 1
489 32 1
489 33 1
489 53 1
489 76 2
489 85 1
489 97 1
490 46 1
490 51 1
490 81 1
490 83 1
491 7 1
491 25 1
491 70 1
491 76 2
491 88 1
492 24 1
492 33 1
492 44 1
492 68 1
492 90 1
492 97 1
493 24 1
493 26 1
493 60 1
493 65 1
493 72 1
493 80 1
494 38 1
494 43 1
494 45 1
494 48 1
494 57 1
494 58 1
494 62 1
494 72 1
494 76 1
495 25 1
495 62 1
495 67 1
495 72 1
495 73 1
495 83 1
496 26 1
496 35 1
496 44 1
496 61 1
496 63 1
496 96 1
497 7 1
497 18 1
497 37 1
497 43 1
497 53 1
497 62 1
497 65 1
497 79 1
497 100 1
498 5 1
498 14 1
498 19 1
498 68 1
498 69 1
498 74 1
498 96 1
499 29 1
499 35 2
499 46 1
499 56 1
499 70 1
499 71 1
499 76 1
499 82 1
500 12 1
500 27 1
500 33 1
500 47 1
500 60 1
500 69 1
500 80 1
500 89 1
500 96 1
500 97 1
500 99 1
501 1 1
501 4 1
501 11 1
501 15 1
501 19 1
501 60 1
501 100 1
502 3 1
502 20 2
502 36 1
502 66 1
502 70 1
502 85 1
503 7 1
503 34 1
503 55 1
503 56 1
503 92 1
503 97 1
503 99 1
504 3 1
504 8 1
504 11 1
504 20 1
504 21 1
504 34 1
504 38 1
504 43 1
504 100 1
505 15 1
505 35 1
505 81 1
505 94 1
506 69 1
506 75 1
506 77 1
506 83 1
506 85 1
506 88 1
507 6 1
507 22 1
507 47 1
507 62 1
507 82 1
507 87 3
507 89 1
508 20 1
508 39 1
508 45 1
508 61 1
508 70 1
508 81 1
508 97 1
509 3 1
509 9 1
509 13 1
509 18 1
509 53 2
509 75 1
509 82 1
509 88 1
509 96 1
510 21 1
510 59 1
510 74 1
510 82 1
510 91 1
510 97 1
511 2 1
511 21 2
511 23 1
511 67 1
511 87 1
511 90 1
511 98 1
512 23 1
512 46 1
512 59 1
512 80 1
512 84 1
513 36 1
513 69 1
513 75 1
513 80 1
513 86 1
513 97 1
513 99 1
514 9 1
514 20 1
514 26 1
514 29 1
514 68 1
514 93 1
515 19 1
515 22 1
515 42 1
515 59 1
515 80 1
515 88 1
515 97 1
516 7 1
516 10 1
516 52 1
516 59 1
516 61 1
516 67 1
516 76 1
516 82 1
516 92 1
517 18 1
517 29 1
517 30 1
517 38 1
517 58 1
518 9 1
518 21 1
518 44 1
518 62 1
518 90 1
519 12 1
519 33 3
519 38 1
519 63 1
519 64 1
519 91 1
520 35 1
520 38 1
520 63 2
520 66 1
520 84 1
520 94 1
521 28 1
521 37 1
521 51 1
521 64 1
521 71 2
522 12 2
522 21 1
522 55 1
523 50 1
523 74 1
524 27 1
524 74 1
524 79 1
524 84 1
525 14 1
525 38 1
525 41 1
525 43 1
525 80 1
525 92 1
526 3 1
526 15 1
526 23 1
526 57 1
526 75 1
526 90 1
526 99 1
527 12 1
527 14 1
527 21 1
527 46 2
527 63 1
527 72 1
527 75 2
527 76 1
527 87 1
527 97 1
528 30 1
528 35 1
528 43 1
528 48 1
528 54 1
528 79 1
528 89 1
529 50 1
529 90 1
530 12 1
530 16 1
530 17 1
530 26 1
530 35 1
530 39 1
530 69 1
530 83 1
530 85 1
530 86 1
530 97 1
530 98 1
531 56 1
531 58 2
531 68 1
531 69 1
531 77 1
532 3 1
532 11 1
532 16 1
532 23 1
532 71 1
532 89 1
533 4 1
533 5 1
533 18 1
533 46 1
533 56 1
533 63 1
533 73 1
533 87 1
533 99 1
534 3 1
534 7 1
534 16 1
534 32 1
534 39 1
534 42 1
534 82 1
534 96 1
535 16 1
535 29 1
535 30 1
535 49 1
535 54 1
535 76 2
536 3 1
536 34 1
536 53 1
536 66 1
536 80 1
536 93 1
537 9 2
537 35 1
537 63 1
537 64 1
537 65 1
537 72 1
537 87 1
537 95 1
538 9 1
538 11 1
538 20 1
538 64 1
538 85 1
538 92 1
539 12 1
539 63 1
539 65 1
539 73 1
539 81 1
539 91 1
540 8 1
540 19 1
540 27 3
540 33 1
540 88 1
541 4 1
541 11 1
541 37 1
541 67 1
541 76 1
541 91 1
542 20 1
542 58 1
542 74 1
542 93 1
543 6 1
543 18 1
543 29 1
543 33 1
543 50 1
543 51 1
543 62 1
543 65 1
543 68 1
543 73 1
543 88 1
544 3 2
544 5 1
544 15 2
544 16 1
544 40 1
544 46 1
544 55 1
544 56 1
544 70 1
544 72 1
544 86 1
544 97 1
545 3 1
545 6 1
545 12 1
545 27 1
545 44 1
545 53 1
545 72 3
545 98 1
546 51 1
546 53 1
546 66 1
546 74 1
547 19 1
547 64 1
547 71 1
547 91 1
548 14 1
548 25 1
548 38 1
548 39 1
548 40 1
548 64 1
548 65 1
548 80 1
548 85 1
549 9 1
549 15 1
549 17 2
549 22 1
549 31 1
549 46 2
549 63 1
550 22 1
550 34 1
550 37 1
550 39 1
550 41 1
550 54 1
550 73 1
551 17 1
551 69 1
551 78 1
552 3 1
552 20 1
552 26 1
552 32 1
552 40 1
552 66 1
552 76 1
552 90 1
553 13 1
553 41 1
553 61 1
553 85 1
554 3 1
554 12 1
554 15 1
554 50 1
554 73 1
555 3 1
555 21 1
555 32 1
555 39 1
555 69 1
555 76 1
555 78 1
555 87 1
556 1 1
556 2 1
556 14 1
556 20 1
556 25 1
556 31 1
556 44 1
556 54 1
556 72 1
556 81 1
556 87 1
556 88 1
557 16 1
557 20 1
557 25 1
557 27 1
557 44 1
557 52 1
557 61 1
557 86 1
557 94 1
557 98 1
558 24 1
558 42 1
558 50 1
558 54 1
558 58 1
558 94 1
558 98 1
559 13 1
559 22 1
559 35 1
559 50 1
559 72 1
559 74 1
559 75 1
559 80 1
559 83 2
560 6 1
560 22 1
560 37 1
560 54 1
560 67 1
561 2 1
561 47 1
561 61 1
561 84 1
561 90 1
561 94 1
562 6 1
562 27 1
562 48 1
562 58 1
562 59 2
562 93 1
562 99 1
563 1 1
563 7 1
563 12 2
563 15 1
563 61 1
563 66 1
563 67 1
563 94 2
564 56 1
564 57 1
565 2 1
565 27 1
565 39 1
565 52 1
565 78 1
565 96 1
566 23 1
566 75 1
566 76 1
567 8 1
567 28 2
567 80 1
567 89 1
568 12 1
568 17 1
568 27 1
568 47 1
568 91 1
568 92 1
569 22 1
569 33 1
569 45 1
569 70 1
570 5 1
570 6 1
570 11 1
570 12 1
570 64 1
570 73 1
571 6 1
571 11 1
571 16 2
571 35 1
571 68 1
571 77 1
571 84 1
572 22 1
572 27 1
572 30 1
572 80 1
572 99 1
573 43 1
573 53 1
573 61 1
573 88 1
573 89 1
574 9 1
574 36 1
574 37 1
574 41 1
574 45 1
574 67 2
575 28 2
575 45 1
575 53 1
575 69 1
575 82 1
575 89 1
575 93 1
576 60 1
576 64 1
576 78 1
576 91 1
576 93 1
576 95 1
577 12 1
577 23 1
577 41 2
577 67 1
577 71 1
577 74 2
577 86 1
577 95 1
578 1 1
578 19 1
578 31 1
578 67 1
578 97 2
579 16 1
579 59 1
579 82 1
580 8 1
580 22 1
580 24 1
580 49 1
580 64 1
580 77 1
580 89 1
580 99 1
581 1 1
581 26 1
581 27 1
581 42 1
581 50 1
581 58 2
581 68 1
581 86 1
581 87 1
581 90 1
582 5 1
582 15 1
582 30 1
582 45 1
582 83 1
583 1 1
583 3 1
583 7 1
583 16 1
583 30 1
583 36 1
583 37 1
583 38 1
583 58 1
583 78 1
584 8 1
584 46 1
584 47 1
584 54 1
584 68 1
584 75 1
584 79 1
584 82 1
584 88 1
584 90 1
584 95 1
585 5 1
585 23 1
585 26 1
585 29 1
585 42 1
585 45 1
585 60 1
585 75 1
585 87 1
585 89 1
586 21 2
586 81 1
586 86 1
586 88 1
586 89 1
586 93 1
587 16 1
587 20 1
587 37 1
587 38 1
587 54 1
588 13 1
588 16 1
588 36 1
588 42 1
588 63 1
588 65 1
588 68 1
588 89 1
588 96 1
589 22 2
589 23 1
589 26 1
589 31 1
589 52 1
589 53 1
589 63 1
589 73 1
589 77 1
589 99 1
590 3 1
590 17 1
590 19 1
590 85 1
590 94 1
590 99 2
590 100 1
591 1 1
591 7 1
591 14 1
591 37 1
591 62 1
591 80 1
591 83 1
591 94 1
592 29 1
592 50 1
592 52 1
592 71 1
592 75 1
593 11 1
593 21 1
593 44 1
593 69 2
593 77 1
593 80 2
593 91 1
593 94 1
593 98 1
594 18 1
594 23 1
594 29 1
594 81 1
594 88 1
594 89 1
594 94 1
594 100 1
595 15 1
595 32 1
595 40 1
595 43 2
595 56 1
595 61 1
595 62 1
595 75 1
595 81 1
596 4 1
596 39 1
596 69 1
596 93 1
596 99 1
597 27 1
597 47 1
597 53 1
597 69 1
597 93 1
598 31 1
598 44 1
598 56 1
598 60 1
598 66 1
598 71 1
598 78 2
598 87 1
599 18 1
599 34 1
599 49 1
599 63 1
600 18 1
600 28 1
600 50 1
600 54 1
600 59 1
600 70 1
600 99 1
601 3 1
601 24 1
601 44 1
601 58 1
601 76 1
602 7 1
602 19 1
602 22 1
602 38 1
602 49 1
602 55 1
602 59 1
602 69 1
602 82 1
602 86 1
603 34 1
603 36 1
603 49 1
603 51 1
603 55 1
603 56 1
603 76 1
603 79 1
603 82 1
603 86 1
604 3 1
604 5 1
604 31 1
604 52 1
604 80 1
604 81 1
605 34 1
605 50 1
605 66 1
605 80 1
605 82 1
605 94 1
605 98 2
605 99 1
606 10 1
606 23 1
606 27 1
606 32 1
606 60 1
606 89 1
607 3 1
607 24 1
607 33 1
607 39 1
607 41 1
607 54 1
607 55 1
607 58 1
607 62 1
607 73 1
607 97 1
608 9 1
608 38 1
608 99 2
609 29 1
609 40 1
609 50 1
609 59 1
609 63 1
609 64 1
609 72 1
609 90 1
609 96 1
610 3 1
610 16 1
610 24 1
610 33 1
610 38 1
610 45 1
610 77 1
610 80 1
611 2 1
611 16 1
611 39 2
611 43 1
611 50 2
611 74 1
611 91 1
612 21 1
612 35 1
612 53 1
612 57 1
612 90 1
612 92 1
613 4 1
613 6 1
613 38 1
613 43 1
613 53 1
613 79 1
613 83 1
614 7 1
614 15 1
614 18 1
614 20 1
614 21 1
614 33 2
614 67 1
614 80 1
614 81 1
614 95 1
615 62 1
615 74 1
616 1 1
616 24 1
616 28 1
616 30 1
616 38 2
616 62 1
616 67 1
616 75 1
616 83 1
617 11 1
617 31 1
617 37 1
617 81 1
618 3 1
618 49 1
618 77 1
618 99 1
619 3 1
619 4 1
619 21 1
619 37 2
619 39 1
619 47 1
620 21 1
620 24 1
620 63 1
620 71 1
620 82 1
620 88 1
620 94 1
620 95 2
621 1 1
621 7 1
621 20 1
621 50 1
621 74 1
622 37 1
622 41 1
622 69 2
622 84 1
622 86 1
622 100 1
623 11 1
623 14 1
623 41 1
623 42 1
623 45 1
623 52 1
623 82 1
623 93 2
623 100 1
624 3 1
624 15 2
624 21 1
624 26 2
624 66 1
624 69 1
624 73 1
625 6 1
625 15 1
625 33 1
625 47 1
625 53 1
625 57 1
626 8 1
626 15 1
626 20 1
626 24 1
626 41 1
626 43 1
626 47 1
626 82 1
626 85 1
626 89 1
627 19 1
627 44 1
627 53 1
627 76 1
627 88 1
627 94 1
628 4 1
628 16 1
628 30 1
628 31 1
628 59 1
628 62 1
628 69 1
629 1 1
629 37 1
629 39 1
629 44 1
629 48 1
629 59 1
629 60 1
629 66 1
629 73 1
629 75 1
629 78 1
630 1 1
630 8 1
630 14 2
630 19 1
630 20 1
630 22 1
630 77 1
630 80 1
630 82 1
630 90 1
630 92 1
631 9 1
631 16 1
631 29 1
631 41 1
632 1 1
632 22 1
632 23 2
632 37 1
632 44 1
633 11 1
633 35 1
633 39 1
633 44 1
633 47 1
633 79 1
633 81 1
634 19 2
634 22 1
634 24 1
634 42 1
634 49 1
634 51 1
634 70 1
635 19 1
635 32 1
635 34 1
635 61 2
635 66 1
636 5 1
636 6 2
636 23 1
636 30 1
636 33 1
636 35 1
636 38 1
636 43 1
637 60 1
637 69 1
637 90 1
637 95 1
638 21 1
638 23 1
638 39 1
638 41 1
638 46 1
638 67 2
638 69 1
638 73 1
638 74 1
638 95 1
639 2 1
639 24 1
639 28 2
639 59 2
640 5 1
640 28 1
640 31 1
640 32 1
640 43 1
640 44 1
640 56 1
640 66 1
640 68 1
640 73 1
640 75 1
640 84 1
640 89 1
640 90 1
640 98 3
640 99 1
641 10 1
641 20 3
641 23 1
641 32 1
641 52 2
641 60 1
641 72 1
641 90 1
642 8 1
642 16 1
642 46 1
642 50 1
642 53 1
642 54 1
642 65 1
642 68 1
642 74 2
642 95 1
642 99 1
643 3 1
643 7 1
643 25 1
643 36 1
643 37 1
643 50 1
643 71 1
643 76 1
643 91 1
643 94 1
644 10 1
644 17 1
644 24 1
644 34 1
644 48 1
644 63 1
644 66 1
644 94 1
645 11 1
645 15 1
645 20 1
645 26 1
645 58 1
645 67 1
645 69 2
645 95 1
646 6 1
646 28 1
646 31 1
646 64 1
646 71 1
646 90 1
646 99 1
647 6 1
647 27 1
647 81 1
647 94 1
647 98 1
648 18 1
648 33 1
648 73 1
648 79 1
648 88 1
648 100 1
649 18 1
649 44 1
650 1 1
650 49 1
650 68 1
650 70 1
650 80 1
650 91 1
650 98 1
651 5 1
651 27 1
651 30 1
651 38 1
651 57 2
652 36 1
652 71 1
652 73 1
652 75 1
652 77 1
652 87 1
652 93 1
652 97 1
653 5 1
653 28 1
653 51 1
653 54 1
653 68 1
653 73 1
653 74 1
653 86 2
654 49 1
654 50 1
654 83 1
654 85 2
655 17 1
655 20 1
655 50 1
655 52 1
656 3 1
656 45 1
656 99 1
657 4 1
657 9 1
657 10 1
657 33 1
657 37 1
657 48 1
657 62 1
658 2 1
658 26 1
658 32 1
658 33 1
658 38 1
658 51 1
658 55 1
658 91 1
659 13 1
659 37 1
659 61 1
659 63 1
659 81 1
659 97 1
660 38 1
660 43 1
660 61 1
660 70 1
660 82 1
661 50 1
661 57 1
661 65 1
662 30 1
662 35 1
662 51 1
662 63 1
662 78 1
662 89 1
663 24 1
663 26 1
663 34 1
663 49 1
663 52 1
663 75 3
663 94 1
664 20 1
664 30 1
664 32 1
664 42 1
664 74 1
664 75 1
664 86 1
665 4 1
665 51 1
665 69 1
665 72 1
665 74 1
665 91 1
666 13 1
666 28 1
666 53 1
666 66 1
667 3 1
667 25 1
667 50 1
667 67 2
668 19 1
668 22 2
668 30 2
668 40 1
668 49 1
668 51 1
668 91 1
669 58 1
669 82 1
669 84 1
669 99 1
669 100 1
670 1 1
670 13 1
670 20 2
670 28 2
670 40 1
670 47 1
670 62 1
670 89 2
671 5 1
671 26 1
671 39 1
671 46 1
671 49 1
671 74 1
672 1 1
672 8 1
672 22 1
672 31 1
672 32 2
672 45 1
672 51 1
672 56 1
672 58 1
672 68 1
672 92 1
673 34 1
673 44 1
673 49 1
673 72 1
674 42 1
674 99 1
674 100 1
675 13 1
675 35 2
675 36 2
675 39 1
675 79 2
675 84 1
675 89 1
676 21 2
676 77 1
676 86 1
676 94 2
677 21 2
677 22 1
677 26 1
677 40 2
677 48 1
677 53 1
677 58 1
677 69 1
677 70 1
677 81 1
677 87 1
678 23 1
678 25 2
678 26 1
678 47 1
678 55 1
678 81 1
679 4 1
679 45 2
679 84 1
679 90 1
680 14 1
680 15 1
680 18 1
680 35 1
680 39 1
680 43 1
680 55 1
680 71 1
680 82 1
680 98 1
681 25 1
681 40 1
681 41 2
681 61 1
682 8 1
682 10 1
682 12 1
682 14 1
682 29 1
682 39 1
682 45 1
682 52 1
682 62 1
682 96 1
683 12 1
683 28 1
683 36 1
683 53 1
684 1 1
684 11 1
684 18 1
684 26 1
684 29 1
684 36 1
684 58 1
684 62 1
684 78 1
684 96 1
685 5 1
685 8 1
685 15 1
685 18 1
685 41 1
685 74 1
685 80 1
685 86 1
685 94 1
686 2 1
686 8 1
686 18 1
686 37 1
686 42 1
686 52 1
686 56 1
687 19 1
687 33 1
687 36 1
687 53 1
687 54 1
687 60 1
687 61 1
687 92 2
688 37 1
688 40 2
688 48 1
688 50 1
688 60 1
688 66 1
688 81 1
688 93 1
688 95 1
688 97 1
688 98 1
689 1 1
689 5 1
689 20 2
689 33 2
689 38 1
689 86 1
690 11 1
690 20 1
690 26 1
690 28 1
690 72 1
690 86 2
690 99 2
691 13 3
691 24 1
691 28 2
691 53 1
691 63 1
691 78 1
691 88 1
691 93 1
691 99 1
692 6 1
692 19 1
692 28 1
692 39 1
692 64 1
693 16 1
693 17 1
693 20 1
693 21 1
693 25 1
693 36 1
693 42 1
693 63 1
693 67 1
694 13 1
694 31 2
694 40 1
694 61 1
694 82 1
694 84 1
694 90 1
694 94 1
695 1 1
695 17 1
695 24 1
695 31 1
695 32 1
695 38 1
695 51 1
695 90 1
696 9 1
696 12 1
696 14 1
696 18 1
696 19 2
696 48 1
696 72 1
696 85 1
696 96 1
697 9 1
697 13 1
697 57 1
697 58 1
697 66 1
697 76 1
697 77 1
697 87 1
697 93 1
698 65 1
698 70 1
698 88 1
698 93 1
698 100 1
699 9 1
699 17 1
699 33 1
699 39 1
699 41 1
699 53 1
699 57 1
699 72 1
699 77 1
699 87 1
699 93 1
700 1 1
700 6 1
700 19 1
700 65 1
700 66 1
700 98 1
701 27 2
701 46 1
701 49 1
701 51 1
701 85 1
701 88 1
701 89 1
702 10 1
702 35 1
702 42 1
702 53 1
702 61 1
703 9 1
703 25 1
703 31 1
703 35 1
703 69 1
703 75 1
703 86 1
704 38 1
704 44 1
704 49 1
704 83 1
705 37 1
705 78 1
706 15 1
706 39 1
706 50 1
706 70 1
706 84 1
706 99 1
707 13 1
707 55 1
707 59 1
707 68 1
707 71 1
707 72 1
707 73 1
707 96 1
708 4 1
708 13 1
708 43 2
708 70 1
708 72 1
708 78 1
708 94 1
709 10 1
709 18 1
709 53 1
709 78 1
709 86 1
709 89 1
709 98 1
710 9 1
710 21 2
710 31 1
710 44 1
710 61 1
710 63 1
710 82 1
710 83 1
710 84 1
710 90 1
712 1 1
712 4 1
712 16 1
712 28 1
712 35 1
712 44 1
712 65 1
712 67 1
712 74 1
712 80 1
713 5 1
713 7 1
713 65 2
713 73 1
713 93 1
714 14 1
714 27 1
714 28 1
714 33 1
714 56 1
714 58 2
714 64 1
714 66 1
715 5 1
715 39 1
715 40 1
715 72 2
715 83 1
715 94 1
715 99 1
716 24 1
716 27 1
716 39 1
716 56 2
716 87 1
716 100 1
717 11 1
717 50 1
717 78 1
717 80 1
718 8 1
718 25 1
718 30 1
718 43 1
718 61 1
718 88 1
718 96 1
719 21 1
719 50 1
719 63 1
719 84 1
719 85 1
719 93 1
720 31 1
720 46 1
720 48 1
720 62 1
720 73 1
720 75 1
720 87 1
721 3 1
721 4 1
721 30 1
721 36 1
721 39 1
721 55 1
721 59 1
721 100 1
722 11 1
722 33 1
722 39 1
722 48 1
722 65 1
722 68 1
722 76 1
722 80 1
722 81 1
722 86 1
722 100 1
723 26 1
723 47 1
723 72 1
723 82 2
723 87 1
723 96 1
723 100 1
724 12 1
724 18 1
724 26 1
724 55 1
724 56 1
724 70 1
724 100 1
725 14 1
725 88 1
725 92 1
725 100 1
726 15 1
726 39 1
726 40 1
726 65 1
726 84 1
727 70 1
728 16 1
728 41 1
728 42 1
728 49 1
728 77 1
728 78 1
728 86 1
728 95 1
729 38 1
729 47 1
729 50 1
729 78 1
729 95 1
730 9 1
730 19 1
730 64 1
730 70 1
730 72 1
730 73 1
730 74 1
730 78 1
731 1 1
731 11 1
731 22 1
731 31 1
731 54 1
731 86 2
731 90 1
731 91 1
732 3 1
732 5 1
732 19 1
732 24 1
732 38 1
732 54 2
732 56 1
732 64 1
732 73 1
733 11 1
733 24 1
733 41 2
733 46 1
733 55 2
733 61 1
733 77 1
734 25 1
734 41 1
734 42 1
734 47 1
734 59 1
734 74 1
734 92 1
734 94 1
734 98 1
735 17 1
735 79 1
735 85 1
736 26 1
736 62 1
736 69 1
737 23 1
737 34 1
737 61 1
737 72 2
737 79 1
737 82 2
738 8 1
738 18 1
738 33 1
738 36 2
738 76 1
739 2 1
739 13 1
739 21 1
739 25 1
739 34 1
739 84 1
739 91 2
739 96 1
740 8 1
740 60 1
740 65 2
740 75 1
740 84 1
741 9 1
741 17 1
741 18 1
741 22 1
741 70 1
741 93 1
742 7 1
742 9 1
742 10 1
742 13 1
742 32 1
742 44 1
742 50 1
742 52 1
742 67 1
742 90 1
742 91 1
743 17 1
743 47 1
743 50 1
743 54 1
743 58 1
743 65 1
743 76 1
743 83 1
743 95 1
744 35 1
744 44 1
744 61 1
744 76 1
744 92 1
745 3 1
745 25 1
745 30 1
745 32 1
745 60 1
745 78 1
745 91 1
746 2 1
746 7 1
746 13 1
746 14 1
746 15 1
746 26 1
746 39 1
746 48 1
746 52 1
746 59 1
746 62 1
746 78 1
746 84 1
746 95 1
747 4 1
747 23 1
747 38 1
747 74 1
748 16 1
748 29 1
748 57 1
748 83 1
748 89 1
748 90 1
748 97 1
749 5 1
749 7 1
749 20 1
749 25 1
749 28 1
749 50 1
749 60 2
749 99 1
749 100 1
750 30 1
750 59 1
750 97 1
751 4 1
751 23 1
751 27 1
751 30 1
751 33 1
751 44 1
751 54 1
751 75 1
751 86 1
751 93 1
751 100 1
752 32 1
752 35 1
752 48 1
752 49 1
752 88 1
753 3 1
753 53 1
753 56 1
753 79 1
754 9 1
754 28 1
754 29 1
754 33 1
754 41 2
754 54 1
754 86 1
754 93 1
755 22 1
755 27 1
755 49 1
755 71 1
755 78 1
755 92 1
755 95 1
756 6 1
756 9 1
756 22 1
756 25 1
756 32 2
756 33 1
756 43 1
756 54 1
756 73 1
756 83 1
756 84 1
756 100 1
757 9 1
757 17 1
757 20 2
757 44 1
757 73 1
757 77 1
758 11 1
758 63 1
758 70 2
758 98 1
759 20 1
759 29 1
759 40 2
759 51 1
759 56 2
759 68 1
759 91 1
760 34 1
760 40 1
760 51 1
760 96 1
761 2 1
761 12 3
761 32 1
761 36 1
761 39 2
761 90 2
762 16 1
762 36 1
762 51 1
762 60 1
762 61 1
762 63 1
763 27 1
763 47 1
763 50 1
763 52 1
763 79 1
764 31 1
764 35 1
764 44 1
764 64 1
764 74 1
764 77 1
764 81 1
764 91 1
764 94 1
764 98 1
764 100 1
765 3 1
765 6 2
765 60 1
765 85 1
765 91 1
766 1 1
766 19 1
766 68 1
767 6 1
767 32 1
767 50 1
767 69 1
767 80 1
767 92 1
768 5 1
768 7 1
768 73 1
768 75 1
768 79 1
768 90 1
769 17 1
769 27 1
769 38 1
769 76 1
770 2 1
770 14 1
770 15 2
770 38 1
770 76 1
770 81 1
770 87 1
771 2 1
771 16 1
771 43 1
771 85 1
771 90 1
772 12 1
772 15 1
772 30 1
772 48 1
772 50 2
772 55 1
772 73 1
772 74 1
773 7 1
773 29 1
773 44 1
773 73 1
773 85 1
773 88 1
774 21 1
774 27 1
774 36 1
774 38 1
775 3 1
775 11 1
775 44 1
775 51 1
775 52 1
775 87 1
776 3 1
776 24 1
776 31 1
776 59 2
776 68 1
776 69 1
776 87 1
777 7 1
777 43 1
777 69 1
777 75 1
777 90 1
777 100 1
778 16 1
778 62 1
778 83 1
778 91 1
778 94 1
779 5 1
779 8 1
779 13 1
779 14 1
779 66 1
779 71 1
779 72 1
779 93 2
779 97 1
779 99 1
780 3 1
780 27 1
780 45 1
780 62 1
780 65 1
780 86 1
781 6 1
781 18 1
781 27 1
781 44 1
783 24 1
783 36 1
783 41 1
783 56 1
783 62 1
784 27 1
784 47 1
784 86 1
785 21 1
785 24 1
785 45 1
785 73 1
785 85 1
785 89 1
786 4 1
786 39 1
786 91 1
786 92 1
786 98 1
786 100 1
787 60 1
787 66 1
787 71 1
788 3 1
788 12 1
788 18 1
788 22 1
788 47 1
788 62 1
788 92 1
789 38 2
789 55 1
789 56 1
789 66 1
789 83 1
789 100 1
790 1 1
790 33 1
790 42 1
790 53 1
790 57 1
790 68 1
790 73 1
791 14 1
791 44 1
791 49 1
791 53 1
791 74 1
791 90 1
791 94 2
791 98 1
792 5 1
792 18 1
792 44 1
792 48 1
792 49 1
793 9 3
793 15 1
793 40 1
793 45 1
793 61 1
793 67 1
793 79 1
793 87 1
793 93 1
794 24 1
795 6 1
795 27 1
795 39 1
795 44 1
795 79 1
796 2 1
796 7 1
796 37 1
796 55 1
796 58 1
796 73 1
796 89 1
796 97 1
797 13 2
797 51 1
797 57 1
797 68 1
797 86 1
797 87 1
798 13 2
798 20 1
798 42 1
798 44 1
798 47 1
798 52 1
799 1 1
799 13 1
799 22 2
799 24 1
799 35 1
799 53 1
799 82 1
799 95 1
799 97 1
800 4 1
800 7 1
800 16 1
800 18 1
800 25 1
800 68 1
800 76 1
800 82 1
800 94 1
800 96 1
801 1 2
801 22 1
801 23 1
801 24 1
801 34 1
801 43 1
801 48 1
801 56 1
801 72 1
802 9 1
802 29 1
802 49 1
802 96 1
802 100 1
803 35 1
803 39 1
803 65 1
803 68 1
803 90 1
804 10 1
804 53 1
804 73 1
804 87 1
804 97 2
804 98 1
805 34 1
805 42 1
805 43 1
805 44 1
805 48 1
805 50 1
805 71 1
805 73 1
805 94 1
806 15 1
806 23 1
806 65 1
806 74 1
806 85 1
806 91 1
806 93 1
807 6 1
807 13 1
807 16 1
807 18 1
807 36 1
807 69 1
807 92 1
808 40 1
808 42 1
808 52 1
808 74 1
808 96 1
809 4 1
809 15 1
809 59 1
809 68 1
810 10 1
810 51 1
810 58 1
810 71 1
810 83 1
811 3 1
811 6 1
811 24 1
811 32 1
811 37 1
811 41 1
811 60 1
811 79 1
812 29 1
812 30 1
812 37 1
812 58 1
812 83 1
812 100 1
813 4 3
813 9 1
813 26 2
813 33 1
813 41 1
813 47 2
813 89 1
814 4 1
814 13 1
814 53 1
814 71 1
815 7 1
815 8 1
815 31 1
815 32 2
815 43 1
815 49 1
815 77 1
816 20 1
816 67 1
816 77 1
816 83 1
817 8 1
817 13 1
817 33 1
817 36 1
817 41 1
817 77 1
817 82 1
818 27 1
818 43 1
818 67 1
818 71 1
819 3 1
819 12 2
819 29 1
819 31 1
819 32 1
819 44 1
819 65 1
819 67 1
819 73 1
819 74 1
819 85 1
819 87 1
819 93 1
820 23 1
820 25 1
820 43 1
820 47 2
820 52 1
820 58 1
820 72 1
820 79 1
820 82 1
820 85 1
821 9 1
821 16 1
821 32 2
821 53 1
821 85 1
821 97 1
822 4 1
822 15 1
822 19 1
822 22 1
822 23 1
822 47 1
822 70 2
822 71 1
823 1 1
823 15 1
823 47 1
823 75 1
823 76 1
824 6 1
824 33 1
824 59 1
824 60 1
824 66 1
824 82 1
824 89 1
824 97 1
825 10 1
825 21 2
825 53 1
825 55 1
825 81 1
825 84 1
825 89 1
825 93 1
826 2 1
826 12 1
826 22 1
826 36 1
826 41 1
826 48 2
826 64 1
827 20 1
827 28 1
827 29 1
827 45 1
828 3 1
828 13 1
828 15 1
828 34 1
828 40 1
828 93 1
829 3 1
829 11 1
829 17 1
829 21 1
829 22 2
829 25 1
829 47 1
829 78 1
830 4 1
830 20 2
830 23 1
830 54 1
830 55 1
830 67 1
830 80 1
830 89 1
830 91 1
831 14 1
831 19 1
831 66 1
831 68 1
831 74 1
831 84 1
831 92 1
832 3 1
832 17 1
832 33 1
832 54 1
832 57 1
832 61 1
832 64 1
832 91 1
833 11 1
833 17 1
833 24 1
833 38 1
833 41 1
833 42 1
833 43 1
833 62 1
833 71 2
833 76 1
833 82 1
833 95 1
834 4 1
834 7 1
834 10 1
834 30 1
834 33 1
834 77 1
834 82 1
834 84 1
835 16 1
835 29 1
835 30 1
835 49 1
835 51 1
835 82 1
835 86 1
835 98 1
836 6 1
836 9 1
836 48 1
836 65 1
836 83 1
836 95 1
836 100 1
837 12 1
837 17 1
837 33 1
837 46 2
837 53 1
837 58 1
837 64 1
837 83 1
838 16 1
838 27 1
838 31 1
838 43 1
838 48 1
838 55 1
838 67 1
838 86 1
838 92 1
839 2 1
839 30 2
839 35 1
839 47 1
839 51 1
839 63 1
839 68 2
839 69 1
839 82 1
839 87 1
840 3 1
840 33 1
840 65 1
840 66 1
840 69 1
841 20 1
841 22 1
841 26 1
841 50 1
841 54 1
841 56 1
841 65 1
841 68 1
841 72 2
841 85 2
841 87 1
841 93 1
841 98 1
842 26 1
842 45 1
842 46 1
842 52 1
842 57 1
842 69 1
842 82 1
842 86 1
842 98 1
843 11 1
843 15 1
843 58 1
843 64 1
843 78 1
844 21 1
844 40 1
844 41 1
844 54 1
844 80 1
844 93 1
844 95 1
845 9 1
845 14 1
845 19 1
845 63 1
845 81 1
846 11 1
846 51 1
846 54 1
846 70 1
847 2 1
847 8 1
847 14 1
847 17 1
847 72 1
847 75 1
848 4 1
848 9 1
848 50 1
848 55 2
848 56 1
848 79 1
849 6 1
849 9 1
849 11 1
849 17 1
849 34 1
849 42 1
849 56 1
849 64 1
849 79 1
849 87 1
850 7 1
850 8 1
850 18 1
850 24 2
850 26 1
850 57 1
850 64 1
851 10 1
851 26 1
851 28 1
851 38 1
851 43 1
851 59 1
852 6 1
852 16 1
852 23 1
852 27 1
852 32 1
852 36 1
852 39 1
852 43 1
852 51 1
852 56 1
852 60 1
852 86 1
852 100 1
853 12 1
853 26 1
853 28 1
853 48 1
853 72 1
853 75 1
854 1 1
854 48 1
854 63 1
854 65 2
854 87 1
854 98 1
855 8 1
855 39 1
855 41 1
855 53 1
855 82 1
856 10 1
856 54 1
856 57 1
856 61 1
856 62 1
856 93 1
856 95 1
857 10 1
857 12 1
857 52 1
857 55 2
857 69 2
857 78 1
858 1 1
858 7 1
858 16 1
858 23 1
858 30 1
858 58 1
858 64 1
858 73 1
858 81 1
859 1 2
859 34 1
859 35 1
859 45 1
859 48 1
859 66 1
860 44 2
860 93 1
861 25 1
861 48 1
861 57 1
861 59 1
861 76 1
861 81 1
861 85 1
861 91 1
862 67 1
862 83 2
863 6 1
863 43 1
863 74 1
863 86 1
863 90 1
864 5 1
864 51 2
864 52 3
864 70 1
864 72 1
864 75 1
864 90 1
864 99 1
865 2 1
865 35 1
865 71 1
865 95 1
866 4 1
866 25 1
866 36 1
866 83 1
866 94 1
866 96 1
867 3 1
867 26 1
867 31 1
867 51 1
867 70 1
867 73 1
867 78 1
867 87 1
868 7 1
868 36 1
868 42 1
868 48 1
868 50 1
868 68 1
868 81 2
869 12 1
869 46 1
869 49 1
869 75 1
869 92 1
870 1 2
870 12 1
870 51 1
871 41 1
871 45 1
871 66 1
871 69 1
871 71 1
871 75 1
871 80 1
871 81 1
871 86 1
871 95 1
872 6 1
872 21 1
872 23 1
872 30 1
872 39 1
872 53 1
872 62 1
872 88 1
872 96 1
873 1 1
873 7 1
873 11 1
873 16 1
873 56 1
873 92 1
874 3 3
874 11 1
874 15 1
874 24 1
874 41 1
874 60 1
875 48 1
875 50 1
875 86 1
875 100 1
876 1 1
876 7 1
876 17 1
876 19 1
876 30 1
876 31 1
876 38 1
876 39 1
876 43 2
876 46 1
876 54 1
876 56 1
876 60 1
876 64 1
876 78 2
876 98 1
876 100 1
877 1 1
877 6 1
877 12 1
877 25 1
877 35 1
877 40 2
877 41 1
877 52 1
877 60 1
877 81 1
877 94 1
877 100 1
878 33 1
878 39 1
878 47 1
878 63 1
878 85 1
878 95 1
879 3 1
879 6 1
879 49 1
879 62 1
879 82 1
879 83 1
879 94 1
880 8 1
880 24 1
880 26 1
880 51 1
880 54 2
880 58 1
880 70 1
880 85 1
881 11 1
881 21 1
881 55 1
881 71 1
881 83 1
882 7 1
882 23 1
882 28 1
882 30 1
882 85 1
882 92 1
882 94 1
882 100 2
883 15 1
883 30 1
883 31 1
883 50 1
883 65 1
884 13 1
884 23 1
884 91 1
884 95 1
884 100 1
885 17 1
885 40 1
885 42 1
885 53 1
885 77 1
885 80 1
885 89 1
886 32 1
886 64 1
886 65 1
886 80 1
886 90 1
886 91 1
886 92 1
886 93 1
887 25 1
887 37 1
887 39 1
887 49 1
887 53 1
887 68 2
887 97 1
888 27 1
888 44 1
888 48 1
888 55 2
888 61 1
888 70 1
888 94 1
889 7 1
889 12 2
889 42 1
889 44 1
889 64 2
889 67 1
889 78 2
889 80 2
890 2 1
890 4 1
890 10 1
890 14 1
890 25 1
890 95 1
891 27 1
891 58 1
891 69 1
892 12 1
892 17 1
892 30 3
892 35 1
892 46 2
892 76 1
892 84 1
892 91 1
892 94 1
893 11 1
893 32 1
893 40 1
893 77 1
894 21 1
894 45 1
894 48 1
894 65 1
894 71 1
894 80 1
894 85 1
894 96 1
895 18 1
895 39 1
895 40 1
895 46 1
895 61 1
895 78 1
895 87 1
895 93 1
895 96 1
895 98 1
895 99 2
895 100 1
896 10 1
896 24 1
896 28 1
896 50 1
896 55 1
896 71 1
896 72 1
896 74 1
896 88 1
896 98 1
897 40 2
897 52 1
897 65 1
897 67 2
897 74 1
897 75 1
897 90 2
898 5 1
898 18 1
898 20 1
898 26 1
898 38 1
898 40 1
898 43 1
898 82 1
899 19 3
899 33 2
899 54 1
899 59 2
899 64 1
899 66 1
899 77 1
900 13 1
900 17 1
900 18 1
900 19 1
900 28 1
900 48 1
900 57 1
900 63 1
900 72 1
900 91 1
901 33 1
901 36 1
901 44 1
901 54 1
901 59 1
901 63 1
901 65 1
901 89 1
901 94 1
902 2 1
902 20 1
902 21 1
902 28 1
902 30 1
902 44 1
902 56 1
902 65 1
902 78 1
903 3 1
903 7 1
903 10 1
903 11 1
903 21 1
903 31 1
903 58 1
903 75 1
903 82 1
903 91 1
904 1 1
904 50 1
904 62 1
904 71 1
904 92 1
904 95 1
905 27 1
906 2 1
906 5 1
906 17 1
906 22 1
906 36 1
906 54 1
906 80 1
906 88 1
907 5 1
907 14 1
907 36 1
907 71 1
907 72 1
907 85 1
908 29 1
908 39 1
908 66 1
908 92 1
909 26 1
909 39 1
909 56 1
909 68 1
909 76 1
909 84 1
910 42 2
910 50 1
910 61 1
911 18 1
911 26 1
911 42 1
911 45 1
911 48 1
911 69 1
911 71 1
911 76 1
911 82 1
912 24 1
912 31 1
912 58 1
912 62 1
912 64 1
912 76 1
912 94 1
913 2 1
913 25 1
913 37 1
913 41 1
913 43 1
913 66 1
913 67 1
913 71 1
913 72 1
913 76 1
913 86 1
914 2 1
914 14 1
914 47 1
914 61 1
914 69 1
914 79 2
915 31 1
915 34 1
915 54 1
915 90 2
916 4 1
916 10 1
916 32 1
916 35 1
916 38 1
916 45 1
916 50 1
916 70 1
916 84 1
916 97 1
917 8 1
917 31 1
917 32 1
917 35 1
917 50 1
917 54 2
917 83 1
917 84 1
918 43 1
918 52 1
918 57 1
918 65 1
918 69 2
919 26 1
919 27 1
919 56 1
919 67 1
919 93 1
920 6 1
920 12 1
920 37 1
920 56 1
920 71 2
920 73 1
920 79 1
921 3 1
921 4 1
921 29 1
921 40 1
921 44 1
921 94 1
922 58 1
922 67 1
922 75 1
922 86 1
923 13 1
923 16 1
923 55 1
924 13 2
924 16 1
924 22 1
924 41 1
924 58 1
925 1 1
925 23 1
925 25 1
925 28 1
925 35 1
925 36 1
925 48 1
925 58 1
926 13 1
926 51 1
926 65 1
926 81 1
926 100 1
927 21 1
927 45 1
927 47 1
928 8 1
928 46 1
928 54 1
929 2 1
929 5 1
929 20 1
929 23 1
929 27 1
929 60 1
929 75 1
929 81 1
929 88 1
930 25 1
930 27 1
930 29 1
930 32 1
930 33 1
930 53 1
930 61 1
930 64 1
930 78 1
930 92 1
931 12 1
931 34 1
931 69 1
931 70 1
932 2 1
932 17 2
932 27 1
932 43 1
932 45 1
932 55 1
932 65 1
932 71 2
932 75 1
932 92 2
933 83 1
933 96 1
934 28 1
934 43 2
934 62 1
934 68 1
935 45 1
935 50 1
935 82 1
935 91 2
935 100 1
936 11 1
936 12 1
936 37 1
936 54 1
936 60 1
936 79 1
936 82 1
937 2 1
937 9 1
937 14 1
937 39 1
937 47 1
937 54 2
937 57 1
937 71 1
937 81 1
937 82 1
937 95 1
938 14 1
938 70 1
938 87 1
938 96 1
939 7 1
939 12 1
939 19 1
939 37 1
939 47 1
939 60 1
939 70 1
939 79 1
939 93 2
940 13 1
940 54 2
940 89 1
940 90 1
941 3 1
941 33 1
941 39 1
941 46 1
941 82 1
941 87 1
941 95 1
942 43 1
942 46 1
942 96 2
943 1 1
943 14 1
943 36 1
943 42 1
943 53 1
943 56 1
943 75 1
943 87 1
944 3 1
944 14 1
944 41 1
944 44 1
944 72 2
944 74 1
944 90 1
944 96 1
944 97 1
944 100 1
945 22 1
945 28 1
945 29 1
945 30 1
945 47 1
945 48 1
945 52 1
945 64 1
945 73 1
945 79 1
945 89 1
945 93 1
945 98 1
945 99 1
946 15 1
946 17 1
946 18 1
946 25 1
946 28 1
946 49 1
946 67 1
946 73 1
946 80 1
946 82 1
947 10 1
947 30 1
947 47 1
947 92 1
947 93 1
947 99 1
948 30 1
948 59 1
948 73 1
948 75 1
949 21 1
949 34 1
949 63 2
949 66 1
949 76 1
949 82 1
949 85 1
949 88 1
949 90 2
950 4 1
950 17 1
950 24 1
950 36 1
950 41 1
950 53 2
950 56 2
950 97 1
951 3 1
951 37 1
951 60 2
951 78 1
952 10 1
952 57 1
952 77 1
952 96 1
953 11 1
953 23 1
953 53 1
953 69 1
953 75 1
953 88 1
953 100 1
954 4 1
954 8 1
954 13 1
954 25 1
954 30 1
954 61 1
954 64 1
954 71 1
954 89 1
955 10 1
955 24 1
955 40 1
955 45 1
955 47 1
955 49 1
955 53 1
955 79 1
956 5 1
956 11 1
956 17 1
956 26 2
956 50 1
956 58 1
956 64 1
956 98 1
956 100 1
957 5 1
957 35 1
957 41 1
957 55 1
957 80 2
958 16 1
958 23 1
958 27 1
958 34 1
958 56 1
958 57 1
958 75 1
958 80 1
958 91 1
958 99 1
959 16 1
959 40 1
959 48 1
959 49 1
959 50 1
959 90 1
959 96 1
960 5 2
960 23 1
960 35 1
960 45 1
960 48 1
960 71 1
960 92 1
960 95 1
961 49 1
961 53 2
961 57 1
961 77 1
961 81 1
961 82 1
962 33 1
962 40 1
962 49 1
962 62 1
962 69 1
962 93 1
962 99 1
962 100 1
963 5 1
963 13 1
963 15 1
963 25 1
963 32 1
963 42 2
963 71 1
963 79 1
963 92 1
963 100 1
964 4 2
964 10 1
964 23 1
964 49 1
964 50 1
964 71 1
964 75 1
964 91 1
964 100 1
965 22 1
965 37 1
965 39 1
965 49 1
965 76 1
965 77 1
966 31 2
966 39 1
966 53 1
966 62 1
966 80 1
966 93 1
966 99 2
967 1 1
967 2 1
967 57 2
967 72 1
968 5 1
968 27 1
968 49 1
968 66 1
968 69 1
968 79 1
968 89 1
968 94 1
968 97 1
969 34 1
969 61 1
969 97 1
970 5 1
970 16 1
970 18 1
970 25 1
970 26 1
970 36 1
970 38 2
970 42 1
970 49 1
970 58 1
970 60 1
970 64 1
970 75 1
970 81 1
971 1 2
971 10 1
971 18 1
971 35 1
971 39 1
971 49 1
971 71 1
972 8 1
972 15 1
972 26 1
972 45 1
972 66 1
972 68 1
972 71 1
972 89 1
972 93 1
972 94 1
973 7 1
973 11 1
973 13 1
973 30 1
973 50 1
973 58 1
973 93 1
974 25 2
974 73 1
974 82 1
974 88 1
975 2 1
975 3 2
975 22 1
975 27 1
975 46 1
975 47 1
975 51 1
975 67 1
975 79 1
975 83 1
975 87 1
975 92 1
976 16 1
976 20 1
976 62 1
976 63 1
976 67 1
976 68 1
976 85 1
977 12 1
977 22 1
977 24 1
977 29 1
977 30 1
977 61 1
977 63 1
977 88 1
977 92 3
977 94 1
978 13 2
978 22 1
978 42 1
978 53 1
978 67 1
978 69 1
979 8 1
979 13 1
979 39 1
979 52 1
979 69 1
979 79 1
980 16 1
980 27 1
980 29 1
980 58 2
980 75 1
980 76 1
980 88 1
981 34 1
981 60 1
981 100 1
982 7 1
982 48 1
982 69 1
983 5 1
983 8 1
983 21 1
983 37 1
983 57 1
983 63 1
983 74 1
983 100 1
984 29 1
984 69 1
984 75 1
984 98 1
985 2 1
985 12 1
985 18 1
985 21 1
985 25 1
985 27 1
985 47 1
985 50 1
985 61 1
985 62 1
985 96 1
985 97 1
986 12 1
986 16 1
986 18 1
986 41 1
987 22 2
987 44 1
987 46 1
987 53 1
987 55 1
987 66 1
987 82 1
987 86 1
987 92 1
988 13 1
988 19 1
988 32 1
988 38 1
988 52 1
988 54 1
988 69 1
988 88 1
988 93 1
988 95 1
989 3 1
989 7 1
989 13 1
989 59 1
989 60 2
989 61 1
989 68 1
989 98 1
990 26 1
990 37 1
990 38 1
990 41 1
990 49 1
990 75 1
991 25 1
991 34 1
991 36 1
991 38 1
991 46 1
991 66 1
991 91 1
991 94 1
991 96 1
992 6 1
992 23 1
992 40 1
992 43 1
992 74 1
992 75 1
992 88 1
992 94 1
992 99 1
993 1 1
993 22 1
993 61 1
993 73 1
993 76 1
993 89 1
993 94 1
994 16 1
994 18 1
994 21 1
994 48 1
994 54 1
994 84 1
994 89 1
994 98 1
995 11 1
995 34 1
995 36 1
995 73 1
995 96 1
996 12 1
996 19 1
996 61 1
996 87 1
997 14 1
997 44 1
997 90 2
997 96 1
998 4 1
998 26 2
998 33 1
998 85 1
998 89 1
998 100 1
999 16 1
999 24 1
999 25 1
999 26 1
999 66 1
999 80 1
999 92 1
1000 13 1
1000 25 1
1000 43 1
1000 79 1
1000 89 1
1000 98 1
