%%MatrixMarket matrix coordinate integer general
%
1000	200	28236
1 1 7
1 2 1
1 4 1
1 7 8
1 8 1
1 11 13
1 13 9
1 14 15
1 20 4
1 25 4
1 26 2
1 27 1
1 29 3
1 30 5
1 31 2
1 34 7
1 35 1
1 40 12
1 41 11
1 43 18
1 46 7
1 47 4
1 48 10
1 49 6
1 51 11
1 53 13
1 54 4
1 55 6
1 56 5
1 58 1
1 59 1
1 60 1
1 61 7
1 62 2
1 64 10
1 66 1
1 68 1
1 69 1
1 70 13
1 73 1
1 75 8
1 77 12
1 79 2
1 80 5
1 83 12
1 86 5
1 88 6
1 89 8
1 91 16
1 97 7
1 98 7
1 99 7
1 100 7
1 101 12
1 102 7
1 103 2
1 104 1
1 112 8
1 114 10
1 115 9
1 119 4
1 124 11
1 126 7
1 127 7
1 128 7
1 129 11
1 131 6
1 132 7
1 136 1
1 137 1
1 139 8
1 141 1
1 146 5
1 148 1
1 149 7
1 150 1
1 152 17
1 154 9
1 156 1
1 157 6
1 159 9
1 160 8
1 162 9
1 164 9
1 165 1
1 166 8
1 168 6
1 169 2
1 174 1
1 175 4
1 176 5
1 179 5
1 180 1
1 182 2
1 183 13
1 185 6
1 188 4
1 189 13
1 190 6
1 191 7
1 192 4
1 193 2
1 197 9
1 199 5
1 200 7
2 1 6
2 3 1
2 7 8
2 11 4
2 13 11
2 14 7
2 20 12
2 25 4
2 26 8
2 29 5
2 30 9
2 31 11
2 34 8
2 40 7
2 41 13
2 43 4
2 45 1
2 46 5
2 47 9
2 48 5
2 49 8
2 51 15
2 53 17
2 54 10
2 55 6
2 56 5
2 58 1
2 59 2
2 61 12
2 64 9
2 65 1
2 70 7
2 71 1
2 73 1
2 75 8
2 77 5
2 78 1
2 79 1
2 80 17
2 83 6
2 84 1
2 86 6
2 88 6
2 89 6
2 91 5
2 97 12
2 98 6
2 99 7
2 100 11
2 101 8
2 102 3
2 103 7
2 107 1
2 112 6
2 114 8
2 115 5
2 119 7
2 124 7
2 126 7
2 127 11
2 128 4
2 129 5
2 131 6
2 132 8
2 139 8
2 140 1
2 145 1
2 146 9
2 147 1
2 149 12
2 152 14
2 154 6
2 155 1
2 157 5
2 159 8
2 160 4
2 162 7
2 163 3
2 164 8
2 166 7
2 168 11
2 169 16
2 175 9
2 176 8
2 179 8
2 182 1
2 183 12
2 185 8
2 187 1
2 188 12
2 189 8
2 190 3
2 191 6
2 192 6
2 193 10
2 194 3
2 197 7
2 199 9
2 200 5
3 1 10
3 2 1
3 7 4
3 11 7
3 13 12
3 14 11
3 15 1
3 20 11
3 24 1
3 25 9
3 26 10
3 29 2
3 30 7
3 31 8
3 32 1
3 34 5
3 37 1
3 38 1
3 40 4
3 41 15
3 43 8
3 46 5
3 47 8
3 48 10
3 49 10
3 51 4
3 53 7
3 54 18
3 55 14
3 56 10
3 58 1
3 60 1
3 61 6
3 64 11
3 69 2
3 70 7
3 72 1
3 75 5
3 76 2
3 77 4
3 80 3
3 83 11
3 85 2
3 86 14
3 88 8
3 89 12
3 91 5
3 97 9
3 98 8
3 99 6
3 100 10
3 101 7
3 102 4
3 103 6
3 109 1
3 110 1
3 112 6
3 114 7
3 115 9
3 119 3
3 124 13
3 126 14
3 127 7
3 128 7
3 129 9
3 131 12
3 132 12
3 136 1
3 137 1
3 139 6
3 142 3
3 143 1
3 145 1
3 146 14
3 148 1
3 149 6
3 151 1
3 152 3
3 153 1
3 154 6
3 157 12
3 159 7
3 160 14
3 162 10
3 164 9
3 166 7
3 168 7
3 169 8
3 175 8
3 176 9
3 179 13
3 183 7
3 185 6
3 188 9
3 189 9
3 190 8
3 191 12
3 192 13
3 193 8
3 196 1
3 197 9
3 199 7
3 200 11
4 1 7
4 3 1
4 7 14
4 10 1
4 11 8
4 13 10
4 14 5
4 20 12
4 25 11
4 26 12
4 29 6
4 30 5
4 31 11
4 34 11
4 37 1
4 40 11
4 41 16
4 43 6
4 46 9
4 47 8
4 48 10
4 49 11
4 51 5
4 53 5
4 54 6
4 55 3
4 56 9
4 60 2
4 61 4
4 63 1
4 64 8
4 67 1
4 69 1
4 70 9
4 75 12
4 76 1
4 77 9
4 78 1
4 79 1
4 80 4
4 82 1
4 83 4
4 84 1
4 85 1
4 86 10
4 88 8
4 89 4
4 90 1
4 91 8
4 94 1
4 95 1
4 97 11
4 98 3
4 99 12
4 100 7
4 101 10
4 102 10
4 103 11
4 105 1
4 107 1
4 111 1
4 112 5
4 114 9
4 115 8
4 119 8
4 123 1
4 124 5
4 126 9
4 127 9
4 128 10
4 129 7
4 131 8
4 132 9
4 136 1
4 137 1
4 139 7
4 141 1
4 146 8
4 149 6
4 152 8
4 154 10
4 155 1
4 157 4
4 159 10
4 160 8
4 162 7
4 164 13
4 166 10
4 167 1
4 168 12
4 169 12
4 173 1
4 174 1
4 175 9
4 176 4
4 177 1
4 179 12
4 183 7
4 185 9
4 187 1
4 188 6
4 189 6
4 190 6
4 191 7
4 192 9
4 193 9
4 197 8
4 199 9
4 200 10
5 1 7
5 4 1
5 7 8
5 11 8
5 13 6
5 14 4
5 19 1
5 20 10
5 23 1
5 25 6
5 26 5
5 27 2
5 29 5
5 30 3
5 31 10
5 34 4
5 37 1
5 40 10
5 41 12
5 43 6
5 45 1
5 46 12
5 47 7
5 48 5
5 49 10
5 50 1
5 51 12
5 52 1
5 53 9
5 54 8
5 55 5
5 56 5
5 61 10
5 63 1
5 64 3
5 66 2
5 70 7
5 71 2
5 73 1
5 75 10
5 77 4
5 80 5
5 83 6
5 86 9
5 88 19
5 89 7
5 91 3
5 92 1
5 93 1
5 97 8
5 98 15
5 99 7
5 100 10
5 101 7
5 102 14
5 103 10
5 105 1
5 106 1
5 108 1
5 110 1
5 112 4
5 114 15
5 115 4
5 116 1
5 117 1
5 119 10
5 122 1
5 124 3
5 126 11
5 127 12
5 128 9
5 129 3
5 130 1
5 131 7
5 132 6
5 134 1
5 137 1
5 139 6
5 146 7
5 149 6
5 150 1
5 152 8
5 154 10
5 157 7
5 158 2
5 159 7
5 160 15
5 162 10
5 164 10
5 165 1
5 166 13
5 168 9
5 169 4
5 170 1
5 173 1
5 175 8
5 176 9
5 179 10
5 183 6
5 185 3
5 188 6
5 189 10
5 190 8
5 191 7
5 192 12
5 193 5
5 195 1
5 197 9
5 198 1
5 199 7
5 200 7
6 1 12
6 2 1
6 3 1
6 4 1
6 7 11
6 9 1
6 10 1
6 11 12
6 13 17
6 14 8
6 15 1
6 19 1
6 20 7
6 24 1
6 25 3
6 26 8
6 27 1
6 29 10
6 30 15
6 31 8
6 34 5
6 39 1
6 40 10
6 41 5
6 42 1
6 43 9
6 46 12
6 47 4
6 48 13
6 49 7
6 50 1
6 51 2
6 53 9
6 54 11
6 55 7
6 56 4
6 61 7
6 64 11
6 70 9
6 74 1
6 75 9
6 77 5
6 80 9
6 83 11
6 86 9
6 88 10
6 89 12
6 91 10
6 92 1
6 97 8
6 98 5
6 99 6
6 100 6
6 101 6
6 102 12
6 103 11
6 111 1
6 112 2
6 113 1
6 114 1
6 115 6
6 118 1
6 119 7
6 121 2
6 124 13
6 126 8
6 127 4
6 128 9
6 129 7
6 131 6
6 132 15
6 136 1
6 139 2
6 146 7
6 149 6
6 152 9
6 154 4
6 157 4
6 159 8
6 160 5
6 161 1
6 162 3
6 164 3
6 166 16
6 168 6
6 169 9
6 171 1
6 175 15
6 176 7
6 179 6
6 181 1
6 182 1
6 183 11
6 185 8
6 188 6
6 189 7
6 190 11
6 191 12
6 192 6
6 193 5
6 195 2
6 197 5
6 199 11
6 200 11
7 1 1
7 2 9
7 4 10
7 5 15
7 6 2
7 9 1
7 10 8
7 11 1
7 12 7
7 16 8
7 17 9
7 18 1
7 19 16
7 21 8
7 24 1
7 25 1
7 26 1
7 28 5
7 31 2
7 35 1
7 36 9
7 37 4
7 39 7
7 40 1
7 42 9
7 43 1
7 44 10
7 48 1
7 50 12
7 52 1
7 55 2
7 57 3
7 59 3
7 60 5
7 63 5
7 65 4
7 67 8
7 69 13
7 71 3
7 72 6
7 73 9
7 76 2
7 79 7
7 84 8
7 85 5
7 87 13
7 88 1
7 89 1
7 90 5
7 92 9
7 93 4
7 94 3
7 95 8
7 96 9
7 98 1
7 100 1
7 105 12
7 106 2
7 108 5
7 113 8
7 114 2
7 115 1
7 117 6
7 118 6
7 120 9
7 121 1
7 123 8
7 125 11
7 127 2
7 129 1
7 130 1
7 131 2
7 133 7
7 134 12
7 135 1
7 136 6
7 137 5
7 143 9
7 144 1
7 145 6
7 147 1
7 150 9
7 151 14
7 152 4
7 155 8
7 156 10
7 161 11
7 163 7
7 165 1
7 170 11
7 172 9
7 173 10
7 175 1
7 177 6
7 180 9
7 181 5
7 184 2
7 187 9
7 194 9
7 196 3
7 197 1
7 198 1
7 199 1
8 2 12
8 4 10
8 5 10
8 6 11
8 10 12
8 11 1
8 12 7
8 13 1
8 15 1
8 16 3
8 17 7
8 18 1
8 19 9
8 21 12
8 23 1
8 25 1
8 26 1
8 28 3
8 30 1
8 36 8
8 37 10
8 38 1
8 39 11
8 40 2
8 42 8
8 43 2
8 44 7
8 46 1
8 49 1
8 50 10
8 53 1
8 54 1
8 57 9
8 59 9
8 60 9
8 63 16
8 65 9
8 66 1
8 67 10
8 69 3
8 71 11
8 72 14
8 73 7
8 74 1
8 79 4
8 84 7
8 85 8
8 87 8
8 90 8
8 91 1
8 92 11
8 93 6
8 94 5
8 95 8
8 96 3
8 101 2
8 103 1
8 105 11
8 106 1
8 108 13
8 111 1
8 113 9
8 115 1
8 117 6
8 118 10
8 120 10
8 123 6
8 124 2
8 125 10
8 133 11
8 134 12
8 136 11
8 137 9
8 143 5
8 144 1
8 145 7
8 146 1
8 147 1
8 149 1
8 150 10
8 151 9
8 155 10
8 156 12
8 157 1
8 159 1
8 160 1
8 161 12
8 163 8
8 164 1
8 168 1
8 170 10
8 172 11
8 173 5
8 174 1
8 176 1
8 177 15
8 180 9
8 181 19
8 186 2
8 187 8
8 192 1
8 194 3
8 196 11
8 199 1
8 200 1
9 2 9
9 3 1
9 4 9
9 5 8
9 6 12
9 10 10
9 11 1
9 12 11
9 16 3
9 17 3
9 18 2
9 19 5
9 21 6
9 28 7
9 33 1
9 36 7
9 37 8
9 39 8
9 42 11
9 43 1
9 44 7
9 47 1
9 50 10
9 51 1
9 57 12
9 58 1
9 59 6
9 60 11
9 63 9
9 64 1
9 65 5
9 67 10
9 68 1
9 69 10
9 70 2
9 71 8
9 72 9
9 73 6
9 76 1
9 79 7
9 83 1
9 84 4
9 85 9
9 87 13
9 90 6
9 91 2
9 92 3
9 93 6
9 94 8
9 95 5
9 96 7
9 97 1
9 98 1
9 99 2
9 100 1
9 105 6
9 106 12
9 108 7
9 109 1
9 111 1
9 113 7
9 114 1
9 116 1
9 117 16
9 118 6
9 120 8
9 123 8
9 125 7
9 127 1
9 133 5
9 134 8
9 136 7
9 137 7
9 138 1
9 139 1
9 141 1
9 143 13
9 144 1
9 145 7
9 147 1
9 150 7
9 151 5
9 155 5
9 156 10
9 161 6
9 163 7
9 164 1
9 165 1
9 166 2
9 167 3
9 170 5
9 171 1
9 172 3
9 173 6
9 177 10
9 180 6
9 181 6
9 183 1
9 185 1
9 186 1
9 187 7
9 188 1
9 194 2
9 196 6
9 199 1
10 2 12
10 4 5
10 5 12
10 6 10
10 10 6
10 11 1
10 12 4
10 13 1
10 16 6
10 17 6
10 19 5
10 21 9
10 22 1
10 28 8
10 36 13
10 37 3
10 38 1
10 39 6
10 42 5
10 43 1
10 44 10
10 47 1
10 49 1
10 50 9
10 51 1
10 54 1
10 57 7
10 59 9
10 60 8
10 63 5
10 65 14
10 67 8
10 69 4
10 70 1
10 71 14
10 72 12
10 73 7
10 79 6
10 80 1
10 84 4
10 85 5
10 87 9
10 90 4
10 92 14
10 93 8
10 94 8
10 95 12
10 96 9
10 101 1
10 102 1
10 103 1
10 105 10
10 106 7
10 108 4
10 111 1
10 113 5
10 115 2
10 117 11
10 118 12
10 120 10
10 122 1
10 123 8
10 125 10
10 133 5
10 134 10
10 136 10
10 137 4
10 139 1
10 143 10
10 145 8
10 150 6
10 151 6
10 155 10
10 156 9
10 158 1
10 160 1
10 161 6
10 163 8
10 165 1
10 166 1
10 170 8
10 172 12
10 173 13
10 176 2
10 177 8
10 180 8
10 181 6
10 187 10
10 193 1
10 194 9
10 196 8
10 198 2
11 2 5
11 4 5
11 5 9
11 6 7
11 10 2
11 11 1
11 12 7
11 14 1
11 16 7
11 17 10
11 19 9
11 21 4
11 22 1
11 28 7
11 32 1
11 35 1
11 36 6
11 37 6
11 38 1
11 39 11
11 42 6
11 44 8
11 50 17
11 51 1
11 53 1
11 54 1
11 57 9
11 59 9
11 60 13
11 63 4
11 65 7
11 67 13
11 68 1
11 69 9
11 71 3
11 72 4
11 73 6
11 79 4
11 84 9
11 85 6
11 87 10
11 88 1
11 90 9
11 92 4
11 93 14
11 94 2
11 95 5
11 96 8
11 104 1
11 105 6
11 106 2
11 107 1
11 108 3
11 109 1
11 113 9
11 117 8
11 118 7
11 119 1
11 120 8
11 123 7
11 124 1
11 125 6
11 127 1
11 132 1
11 133 11
11 134 7
11 135 1
11 136 9
11 137 12
11 139 1
11 143 6
11 144 1
11 145 7
11 149 1
11 150 5
11 151 6
11 155 10
11 156 6
11 159 1
11 161 6
11 163 14
11 166 2
11 170 7
11 172 12
11 173 7
11 177 13
11 179 1
11 180 6
11 181 7
11 186 1
11 187 11
11 188 1
11 191 1
11 193 1
11 194 5
11 196 5
11 200 1
12 2 5
12 4 8
12 5 9
12 6 3
12 10 9
12 12 15
12 16 6
12 17 11
12 19 16
12 21 6
12 23 1
12 28 4
12 32 1
12 36 10
12 37 5
12 38 1
12 39 9
12 42 7
12 44 5
12 45 1
12 47 1
12 49 1
12 50 6
12 52 1
12 57 4
12 58 2
12 59 8
12 60 9
12 63 15
12 65 10
12 66 1
12 67 10
12 69 6
12 71 8
12 72 3
12 73 11
12 79 4
12 84 14
12 85 8
12 87 14
12 90 8
12 92 11
12 93 12
12 94 4
12 95 8
12 96 8
12 100 1
12 101 1
12 104 1
12 105 11
12 106 5
12 108 5
12 113 5
12 117 7
12 118 8
12 120 6
12 122 1
12 123 3
12 124 1
12 125 7
12 126 1
12 128 1
12 133 6
12 134 11
12 136 9
12 137 15
12 138 1
12 143 8
12 145 11
12 150 6
12 151 5
12 155 12
12 156 7
12 158 2
12 159 1
12 160 1
12 161 9
12 163 6
12 164 1
12 170 9
12 172 9
12 173 11
12 177 3
12 180 9
12 181 9
12 185 1
12 187 7
12 194 12
12 196 7
13 8 7
13 9 5
13 15 8
13 18 12
13 22 8
13 23 6
13 27 6
13 28 1
13 29 2
13 30 1
13 31 1
13 32 8
13 35 6
13 37 1
13 42 1
13 43 1
13 45 7
13 46 2
13 47 1
13 51 1
13 57 1
13 58 8
13 59 1
13 69 1
13 75 1
13 78 12
13 80 1
13 91 1
13 92 1
13 96 1
13 99 1
13 100 1
13 102 1
13 104 7
13 107 5
13 109 7
13 111 6
13 113 1
13 116 4
13 119 1
13 120 1
13 121 1
13 122 5
13 126 1
13 127 1
13 130 9
13 135 12
13 138 11
13 142 1
13 144 6
13 146 1
13 147 3
13 148 14
13 153 9
13 158 4
13 165 4
13 167 9
13 168 1
13 171 6
13 181 1
13 182 12
13 183 1
13 184 6
13 185 1
13 186 8
13 188 1
13 189 1
13 190 1
13 192 1
13 193 1
13 195 13
13 198 12
13 199 1
13 200 1
14 6 1
14 8 9
14 9 9
14 15 12
14 18 10
14 22 5
14 23 7
14 26 1
14 27 8
14 32 8
14 35 12
14 37 1
14 40 2
14 42 1
14 45 7
14 46 1
14 52 1
14 58 5
14 62 1
14 65 1
14 66 1
14 67 1
14 75 1
14 78 5
14 84 1
14 88 2
14 91 1
14 93 1
14 95 2
14 97 1
14 98 1
14 104 4
14 106 1
14 107 12
14 109 3
14 111 7
14 116 8
14 117 2
14 121 1
14 122 6
14 127 1
14 130 9
14 135 7
14 138 9
14 144 7
14 146 1
14 147 11
14 148 5
14 153 11
14 155 1
14 158 10
14 163 1
14 165 7
14 167 12
14 168 1
14 171 10
14 176 1
14 182 13
14 184 7
14 186 12
14 188 1
14 191 2
14 194 1
14 195 12
14 198 12
14 199 1
14 200 1
15 8 9
15 9 6
15 15 6
15 18 9
15 22 2
15 23 11
15 26 1
15 27 7
15 32 7
15 34 1
15 35 8
15 42 1
15 45 1
15 49 1
15 53 1
15 56 1
15 58 4
15 60 2
15 62 1
15 67 1
15 70 1
15 78 5
15 80 2
15 85 1
15 88 1
15 95 2
15 101 1
15 102 1
15 104 8
15 107 7
15 109 9
15 111 7
15 116 9
15 120 1
15 121 1
15 122 5
15 126 1
15 127 1
15 129 1
15 130 8
15 134 1
15 135 9
15 136 1
15 138 7
15 144 8
15 147 7
15 148 10
15 149 1
15 150 1
15 153 8
15 158 11
15 159 1
15 161 1
15 165 11
15 167 5
15 170 1
15 171 10
15 176 1
15 177 1
15 182 10
15 184 8
15 186 8
15 187 1
15 188 1
15 192 1
15 195 5
15 198 5
16 2 1
16 5 1
16 8 7
16 9 7
16 12 1
16 15 7
16 16 1
16 18 14
16 22 12
16 23 8
16 27 14
16 28 1
16 32 7
16 33 1
16 35 8
16 40 1
16 41 1
16 42 1
16 44 1
16 45 7
16 46 1
16 49 1
16 55 1
16 58 11
16 59 1
16 66 1
16 67 1
16 71 1
16 72 1
16 78 12
16 79 1
16 80 1
16 85 1
16 89 3
16 91 1
16 92 2
16 97 1
16 102 1
16 103 1
16 104 9
16 106 1
16 107 11
16 109 9
16 111 8
16 112 1
16 113 1
16 115 1
16 116 9
16 119 1
16 122 7
16 129 1
16 130 12
16 133 1
16 135 7
16 138 8
16 144 12
16 145 1
16 147 9
16 148 5
16 153 7
16 158 10
16 161 1
16 165 6
16 167 7
16 168 2
16 171 6
16 174 1
16 182 5
16 184 7
16 186 14
16 187 1
16 193 1
16 195 6
16 198 6
17 3 1
17 4 1
17 5 2
17 6 2
17 8 11
17 9 7
17 15 6
17 18 8
17 21 3
17 22 8
17 23 13
17 26 2
17 27 8
17 32 11
17 35 11
17 38 1
17 45 7
17 46 1
17 49 1
17 50 1
17 54 1
17 55 1
17 56 2
17 58 1
17 59 1
17 66 1
17 73 1
17 78 12
17 79 1
17 85 1
17 86 1
17 87 1
17 90 1
17 102 2
17 104 8
17 107 8
17 109 10
17 111 4
17 113 1
17 115 1
17 116 4
17 121 1
17 122 12
17 128 2
17 129 4
17 130 8
17 134 1
17 135 9
17 138 7
17 141 1
17 144 3
17 145 1
17 147 6
17 148 3
17 149 1
17 150 1
17 153 9
17 154 2
17 155 1
17 158 17
17 162 1
17 165 7
17 166 3
17 167 5
17 169 1
17 171 12
17 176 1
17 182 9
17 184 8
17 186 10
17 193 1
17 195 6
17 198 7
17 200 2
18 1 1
18 8 7
18 9 9
18 15 10
18 16 1
18 18 8
18 22 12
18 23 8
18 25 2
18 27 5
18 32 6
18 34 1
18 35 7
18 44 2
18 45 3
18 51 1
18 53 1
18 58 6
18 62 2
18 68 1
18 73 1
18 78 11
18 86 1
18 87 1
18 88 1
18 89 1
18 96 1
18 102 1
18 104 9
18 105 1
18 107 4
18 109 6
18 110 1
18 111 4
18 115 1
18 116 12
18 121 1
18 122 7
18 126 1
18 129 2
18 130 2
18 132 1
18 135 16
18 138 4
18 142 2
18 144 7
18 147 6
18 148 5
18 153 5
18 154 1
18 158 5
18 159 1
18 163 1
18 165 13
18 166 1
18 167 12
18 169 1
18 171 10
18 180 1
18 182 10
18 183 1
18 184 3
18 186 5
18 189 1
18 193 2
18 195 3
18 197 2
18 198 4
18 200 1
19 3 13
19 5 1
19 7 1
19 8 1
19 9 1
19 11 1
19 14 1
19 15 1
19 21 1
19 23 1
19 24 2
19 28 1
19 29 2
19 33 5
19 36 1
19 38 6
19 45 1
19 47 1
19 49 1
19 52 7
19 53 2
19 61 1
19 62 7
19 66 7
19 68 5
19 70 2
19 74 3
19 76 5
19 81 9
19 82 8
19 88 1
19 92 1
19 93 1
19 96 1
19 103 2
19 107 1
19 110 7
19 111 1
19 120 1
19 121 4
19 124 1
19 127 1
19 129 2
19 140 15
19 141 6
19 142 16
19 149 1
19 150 1
19 154 2
19 157 1
19 163 1
19 165 1
19 166 1
19 174 9
19 175 2
19 176 1
19 178 7
19 183 1
19 187 2
19 188 1
19 189 1
19 190 1
19 191 1
19 194 1
19 196 1
19 200 1
20 3 12
20 6 1
20 12 1
20 13 1
20 18 1
20 19 1
20 24 11
20 29 1
20 32 1
20 33 4
20 37 2
20 38 6
20 39 1
20 46 1
20 48 1
20 49 1
20 50 1
20 51 2
20 52 3
20 62 8
20 63 1
20 66 8
20 68 3
20 72 1
20 74 8
20 76 9
20 79 2
20 81 8
20 82 10
20 83 1
20 84 1
20 87 1
20 107 1
20 110 9
20 113 1
20 115 1
20 121 10
20 123 1
20 136 1
20 140 15
20 141 12
20 142 4
20 150 1
20 151 1
20 152 1
20 154 1
20 159 1
20 161 1
20 162 1
20 165 1
20 166 1
20 167 1
20 170 2
20 174 8
20 178 10
20 192 1
21 3 6
21 7 2
21 8 1
21 11 1
21 12 1
21 13 2
21 19 2
21 20 1
21 24 6
21 25 1
21 33 6
21 38 6
21 42 1
21 44 1
21 45 1
21 49 1
21 52 6
21 62 7
21 63 1
21 64 1
21 66 8
21 68 9
21 74 8
21 76 9
21 79 1
21 81 11
21 82 11
21 85 1
21 86 1
21 90 2
21 93 1
21 98 1
21 100 1
21 107 1
21 109 1
21 110 8
21 111 1
21 120 1
21 121 3
21 133 2
21 140 12
21 141 6
21 142 7
21 149 1
21 154 1
21 156 1
21 166 1
21 167 1
21 172 1
21 174 3
21 178 8
21 186 1
21 190 1
21 194 2
21 195 3
22 3 6
22 4 1
22 6 1
22 9 1
22 13 1
22 19 2
22 20 1
22 22 1
22 23 1
22 24 8
22 29 1
22 30 2
22 33 10
22 37 1
22 38 10
22 39 1
22 41 1
22 44 1
22 45 1
22 48 1
22 49 2
22 52 13
22 54 1
22 56 1
22 62 8
22 66 6
22 68 6
22 69 1
22 74 2
22 75 1
22 76 7
22 81 11
22 82 4
22 85 1
22 87 1
22 88 1
22 89 1
22 107 1
22 110 7
22 112 2
22 114 1
22 115 1
22 119 1
22 121 7
22 122 1
22 129 1
22 132 2
22 133 1
22 134 1
22 136 1
22 138 2
22 140 8
22 141 1
22 142 5
22 146 1
22 147 2
22 151 1
22 160 1
22 162 1
22 163 1
22 168 1
22 169 1
22 170 1
22 174 8
22 175 1
22 178 6
22 192 1
22 193 1
22 197 1
23 1 1
23 3 8
23 24 11
23 30 1
23 33 7
23 36 1
23 37 1
23 38 9
23 43 1
23 44 1
23 49 1
23 50 1
23 51 1
23 52 6
23 56 1
23 59 1
23 62 10
23 65 1
23 66 9
23 68 9
23 72 1
23 74 7
23 76 8
23 77 1
23 78 2
23 81 13
23 82 10
23 101 1
23 102 1
23 105 2
23 110 11
23 119 1
23 121 3
23 126 1
23 136 1
23 137 1
23 140 5
23 141 9
23 142 7
23 154 1
23 172 1
23 173 1
23 174 5
23 178 10
23 182 2
23 184 2
23 189 1
23 196 1
23 198 2
23 199 1
24 3 8
24 5 2
24 16 1
24 17 1
24 19 1
24 24 18
24 28 1
24 29 2
24 33 11
24 38 4
24 39 2
24 48 1
24 52 13
24 58 1
24 59 1
24 62 7
24 66 12
24 67 1
24 68 2
24 69 1
24 74 12
24 76 8
24 80 2
24 81 4
24 82 9
24 91 1
24 92 1
24 93 1
24 98 1
24 99 1
24 110 10
24 115 1
24 118 1
24 121 9
24 123 1
24 128 1
24 129 1
24 133 1
24 140 12
24 141 7
24 142 6
24 144 1
24 146 3
24 149 1
24 150 1
24 153 1
24 155 1
24 159 1
24 160 2
24 166 2
24 168 1
24 169 1
24 174 12
24 178 11
24 180 2
24 184 1
24 198 1
25 1 5
25 2 6
25 3 8
25 4 9
25 5 7
25 6 3
25 7 5
25 8 5
25 9 7
25 10 4
25 11 5
25 12 3
25 13 8
25 14 9
25 15 9
25 16 4
25 17 5
25 18 7
25 19 1
25 20 9
25 21 5
25 22 11
25 23 7
25 24 5
25 25 6
25 26 7
25 27 8
25 28 6
25 29 7
25 30 8
25 31 5
25 32 7
25 33 9
25 34 6
25 35 5
25 36 6
25 37 6
25 38 3
25 39 6
25 40 9
25 41 4
25 42 8
25 43 5
25 44 11
25 45 7
25 46 4
25 47 6
25 48 8
25 49 5
25 50 6
25 51 7
25 52 8
25 54 12
25 55 9
25 56 8
25 57 11
25 58 6
25 59 3
25 60 8
25 61 3
25 62 5
25 63 12
25 64 5
25 65 4
25 66 10
25 67 5
25 68 4
25 69 6
25 70 10
25 71 6
25 72 6
25 73 3
25 74 6
25 75 8
25 76 8
25 77 5
25 78 6
25 79 3
25 80 8
25 81 5
25 82 8
25 83 6
25 84 6
25 85 7
25 86 4
25 87 4
25 88 4
25 89 7
25 90 10
25 91 3
25 92 9
25 93 5
25 94 6
25 95 4
25 96 1
25 97 6
25 98 5
25 99 5
25 100 6
25 101 3
25 102 6
25 103 4
25 104 10
25 105 3
25 106 8
25 107 13
25 108 4
25 109 6
25 110 10
25 111 8
25 112 2
25 113 5
25 114 5
25 115 12
25 116 7
25 117 10
25 118 5
25 119 6
25 120 8
25 121 7
25 122 5
25 123 4
25 124 5
25 125 10
25 126 9
25 127 8
25 128 10
25 129 6
25 130 4
25 131 6
25 132 10
25 133 6
25 134 4
25 135 4
25 136 7
25 137 3
25 138 6
25 139 12
25 140 8
25 141 9
25 142 5
25 143 11
25 144 3
25 145 9
25 146 7
25 147 4
25 148 10
25 149 8
25 150 5
25 151 6
25 152 6
25 153 3
25 154 13
25 155 5
25 156 7
25 157 9
25 158 7
25 159 10
25 160 11
25 161 4
25 162 5
25 163 6
25 164 4
25 165 6
25 166 9
25 167 4
25 168 2
25 169 12
25 170 6
25 171 5
25 172 7
25 173 2
25 174 13
25 175 10
25 176 7
25 177 10
25 178 10
25 179 5
25 180 6
25 181 10
25 182 7
25 183 6
25 184 4
25 185 6
25 186 7
25 187 4
25 188 4
25 189 12
25 190 5
25 191 3
25 192 6
25 193 8
25 194 6
25 195 2
25 196 7
25 197 6
25 198 4
25 199 6
25 200 6
26 1 8
26 2 11
26 3 8
26 4 6
26 5 4
26 6 9
26 7 7
26 8 11
26 9 5
26 10 8
26 11 8
26 12 6
26 13 4
26 14 10
26 15 2
26 16 2
26 17 5
26 18 4
26 19 4
26 20 2
26 21 5
26 22 9
26 23 5
26 24 10
26 25 5
26 26 3
26 27 4
26 28 13
26 29 2
26 30 12
26 31 6
26 32 3
26 33 3
26 34 7
26 35 11
26 36 7
26 37 2
26 38 3
26 39 11
26 40 5
26 41 7
26 42 12
26 43 4
26 44 2
26 45 12
26 46 3
26 47 5
26 48 4
26 49 6
26 50 6
26 51 6
26 52 1
26 53 4
26 54 6
26 55 3
26 56 9
26 57 6
26 58 4
26 59 13
26 60 5
26 61 1
26 62 5
26 63 8
26 64 6
26 65 8
26 66 7
26 67 9
26 68 7
26 69 11
26 70 6
26 71 11
26 72 2
26 73 8
26 74 7
26 75 10
26 76 3
26 77 3
26 78 2
26 79 6
26 80 6
26 81 5
26 82 4
26 83 7
26 84 5
26 85 6
26 86 5
26 87 8
26 88 3
26 89 11
26 90 7
26 91 5
26 92 2
26 93 4
26 94 8
26 95 12
26 96 8
26 97 3
26 98 5
26 99 8
26 100 7
26 101 1
26 102 7
26 103 5
26 104 5
26 105 5
26 106 5
26 107 6
26 108 9
26 109 4
26 110 6
26 111 7
26 112 5
26 113 4
26 114 8
26 115 7
26 116 1
26 117 4
26 118 4
26 119 8
26 120 4
26 121 10
26 122 5
26 123 7
26 124 5
26 125 4
26 126 6
26 127 6
26 128 4
26 129 3
26 130 5
26 131 6
26 132 6
26 133 8
26 134 4
26 135 5
26 136 7
26 137 5
26 138 13
26 139 2
26 140 2
26 141 8
26 142 14
26 143 7
26 144 5
26 145 3
26 146 5
26 147 4
26 148 7
26 149 4
26 150 6
26 151 5
26 152 11
26 153 7
26 154 5
26 155 6
26 156 8
26 157 2
26 158 6
26 159 3
26 160 2
26 161 4
26 162 8
26 163 6
26 164 8
26 165 5
26 166 6
26 167 6
26 168 6
26 169 6
26 170 7
26 171 8
26 172 8
26 173 11
26 174 5
26 175 4
26 176 6
26 177 2
26 178 7
26 179 6
26 180 4
26 181 7
26 182 5
26 183 3
26 184 9
26 185 4
26 186 4
26 187 4
26 188 7
26 189 6
26 190 2
26 191 2
26 192 9
26 193 5
26 194 4
26 195 7
26 196 7
26 197 4
26 198 4
26 199 5
26 200 13
27 1 9
27 2 6
27 3 3
27 4 7
27 5 1
27 6 5
27 7 6
27 8 7
27 9 6
27 10 5
27 11 10
27 12 6
27 13 6
27 14 1
27 15 5
27 16 9
27 17 8
27 18 2
27 19 5
27 20 3
27 21 6
27 22 7
27 23 13
27 24 6
27 25 1
27 26 3
27 27 2
27 28 4
27 29 6
27 30 7
27 31 3
27 32 12
27 33 6
27 34 8
27 35 6
27 36 4
27 37 10
27 38 10
27 39 10
27 40 7
27 41 5
27 42 4
27 43 5
27 44 2
27 45 4
27 46 4
27 47 8
27 48 4
27 49 3
27 50 6
27 51 8
27 52 1
27 53 3
27 54 8
27 55 3
27 56 12
27 57 10
27 58 7
27 59 5
27 60 5
27 61 4
27 62 4
27 63 5
27 64 2
27 65 7
27 66 4
27 67 6
27 68 7
27 69 3
27 70 4
27 71 7
27 72 4
27 73 4
27 74 5
27 75 4
27 76 7
27 77 5
27 78 8
27 79 6
27 80 8
27 81 5
27 82 3
27 83 4
27 84 9
27 85 5
27 86 9
27 87 1
27 88 1
27 89 10
27 90 4
27 91 5
27 92 6
27 93 4
27 94 2
27 95 6
27 96 12
27 97 8
27 98 5
27 99 1
27 100 6
27 101 6
27 102 14
27 103 5
27 104 9
27 105 6
27 106 7
27 107 5
27 108 4
27 109 12
27 110 4
27 111 4
27 112 3
27 113 8
27 114 12
27 115 5
27 116 5
27 117 9
27 118 2
27 119 5
27 120 8
27 121 7
27 122 3
27 123 6
27 124 3
27 125 9
27 126 6
27 127 9
27 128 4
27 129 9
27 130 4
27 131 10
27 132 8
27 133 3
27 134 9
27 135 6
27 136 3
27 137 8
27 138 7
27 139 7
27 140 6
27 141 7
27 142 11
27 143 4
27 144 5
27 145 5
27 146 6
27 147 10
27 148 7
27 149 5
27 150 7
27 151 4
27 152 4
27 153 2
27 154 11
27 155 6
27 156 8
27 157 4
27 158 11
27 159 2
27 160 4
27 161 6
27 162 4
27 163 5
27 164 3
27 165 7
27 166 7
27 167 6
27 168 8
27 169 8
27 170 13
27 171 3
27 172 5
27 173 4
27 174 5
27 175 7
27 176 8
27 177 4
27 178 6
27 179 5
27 180 8
27 181 7
27 182 6
27 183 6
27 184 4
27 185 4
27 186 5
27 187 5
27 188 11
27 189 6
27 190 6
27 191 7
27 192 4
27 193 5
27 194 3
27 195 5
27 196 6
27 197 5
27 198 6
27 199 7
27 200 3
28 1 5
28 2 5
28 3 7
28 4 5
28 5 5
28 6 3
28 7 10
28 8 6
28 9 6
28 10 8
28 11 4
28 12 3
28 13 11
28 14 5
28 15 12
28 16 3
28 17 6
28 18 4
28 19 4
28 20 11
28 21 4
28 22 10
28 23 9
28 24 4
28 25 6
28 26 2
28 27 7
28 28 3
28 29 5
28 30 4
28 31 5
28 32 8
28 33 5
28 34 5
28 35 3
28 36 4
28 37 7
28 38 8
28 39 8
28 40 4
28 41 7
28 42 6
28 43 4
28 44 3
28 45 5
28 46 4
28 47 3
28 48 7
28 49 12
28 50 4
28 51 9
28 52 10
28 53 4
28 54 2
28 55 7
28 56 2
28 57 4
28 58 2
28 59 10
28 60 4
28 61 7
28 62 12
28 63 6
28 64 10
28 65 3
28 66 5
28 67 8
28 68 4
28 69 6
28 70 2
28 71 4
28 72 11
28 73 12
28 74 9
28 75 5
28 76 3
28 77 6
28 78 7
28 79 3
28 80 5
28 81 5
28 82 9
28 83 4
28 84 6
28 85 6
28 86 4
28 87 10
28 88 8
28 89 8
28 90 5
28 91 5
28 92 9
28 93 5
28 94 2
28 95 6
28 96 7
28 97 8
28 98 5
28 99 9
28 100 4
28 101 4
28 102 5
28 103 6
28 104 8
28 105 4
28 106 5
28 107 2
28 108 7
28 109 10
28 110 10
28 111 7
28 112 9
28 113 4
28 114 2
28 115 4
28 116 10
28 117 5
28 118 3
28 119 8
28 120 4
28 121 6
28 122 3
28 123 3
28 124 6
28 125 9
28 126 4
28 127 7
28 128 3
28 129 5
28 130 9
28 131 7
28 132 2
28 133 6
28 134 3
28 135 5
28 136 8
28 137 6
28 138 5
28 139 5
28 140 7
28 141 10
28 142 3
28 143 5
28 144 7
28 145 6
28 146 8
28 147 6
28 148 5
28 149 5
28 150 5
28 151 4
28 152 6
28 153 5
28 154 4
28 155 6
28 156 6
28 157 7
28 158 5
28 159 7
28 160 7
28 161 3
28 162 4
28 163 9
28 164 13
28 165 6
28 166 5
28 167 8
28 168 5
28 169 7
28 170 2
28 171 6
28 172 8
28 173 8
28 174 4
28 175 6
28 176 9
28 177 9
28 178 6
28 179 4
28 180 6
28 181 8
28 182 9
28 183 7
28 184 8
28 185 4
28 186 6
28 187 4
28 188 10
28 189 6
28 190 8
28 191 5
28 192 7
28 193 6
28 194 5
28 195 3
28 196 7
28 197 7
28 198 1
28 199 5
28 200 12
29 1 8
29 2 5
29 3 8
29 4 15
29 5 5
29 6 4
29 7 6
29 8 5
29 9 2
29 10 8
29 11 5
29 12 7
29 13 8
29 14 6
29 15 11
29 16 2
29 17 7
29 18 5
29 19 7
29 20 6
29 21 11
29 22 5
29 23 7
29 24 1
29 25 3
29 26 4
29 27 12
29 28 12
29 29 6
29 30 8
29 31 3
29 32 5
29 33 9
29 34 7
29 35 9
29 36 4
29 37 6
29 38 5
29 39 7
29 40 3
29 41 10
29 42 6
29 43 3
29 44 12
29 45 4
29 46 2
29 47 5
29 48 1
29 49 7
29 50 5
29 51 6
29 52 8
29 53 7
29 54 5
29 55 6
29 56 3
29 57 4
29 58 10
29 59 5
29 60 4
29 61 7
29 62 5
29 63 11
29 64 2
29 65 6
29 66 1
29 67 9
29 68 8
29 69 4
29 70 3
29 71 12
29 72 8
29 73 5
29 74 4
29 76 4
29 77 6
29 78 6
29 79 9
29 80 9
29 81 5
29 82 3
29 83 4
29 84 5
29 85 8
29 86 9
29 87 6
29 88 5
29 89 5
29 90 4
29 91 7
29 92 5
29 93 5
29 94 9
29 95 11
29 96 8
29 97 7
29 98 1
29 99 7
29 100 5
29 101 6
29 102 2
29 103 3
29 104 9
29 105 4
29 106 4
29 107 4
29 108 7
29 109 4
29 110 9
29 111 8
29 112 4
29 113 10
29 115 2
29 116 11
29 117 7
29 118 8
29 119 5
29 120 5
29 121 6
29 122 1
29 123 3
29 124 7
29 125 3
29 126 10
29 127 6
29 128 8
29 129 8
29 130 6
29 131 7
29 132 5
29 133 4
29 134 6
29 135 4
29 136 3
29 137 3
29 138 5
29 139 6
29 140 5
29 141 2
29 142 1
29 143 4
29 144 4
29 145 10
29 146 7
29 147 8
29 148 2
29 149 4
29 150 4
29 151 10
29 152 8
29 153 6
29 154 9
29 155 7
29 156 3
29 157 3
29 158 7
29 159 3
29 160 5
29 161 5
29 162 9
29 163 5
29 164 6
29 165 7
29 166 7
29 167 4
29 168 6
29 169 6
29 170 8
29 171 9
29 172 4
29 173 8
29 174 5
29 175 10
29 176 2
29 177 6
29 178 3
29 179 2
29 180 3
29 181 8
29 182 5
29 183 5
29 184 8
29 185 3
29 186 8
29 187 7
29 188 3
29 189 3
29 190 2
29 191 3
29 192 3
29 193 8
29 194 7
29 195 4
29 196 7
29 197 4
29 198 7
29 199 8
29 200 3
30 1 5
30 2 3
30 3 4
30 4 9
30 5 4
30 6 10
30 7 4
30 8 7
30 9 9
30 10 5
30 11 8
30 12 3
30 13 5
30 14 6
30 15 4
30 16 11
30 17 9
30 18 8
30 19 3
30 20 5
30 21 5
30 22 4
30 23 7
30 24 12
30 25 12
30 26 4
30 27 5
30 28 2
30 29 9
30 30 9
30 31 4
30 32 4
30 33 3
30 34 5
30 35 6
30 36 9
30 37 6
30 38 5
30 39 5
30 40 6
30 41 4
30 42 5
30 43 6
30 44 4
30 45 3
30 46 5
30 47 5
30 48 6
30 49 6
30 50 2
30 51 4
30 52 7
30 53 13
30 54 5
30 55 5
30 56 11
30 57 8
30 58 5
30 59 9
30 60 2
30 61 2
30 62 13
30 63 8
30 64 12
30 65 6
30 66 5
30 67 1
30 68 7
30 69 8
30 70 6
30 71 6
30 72 8
30 73 5
30 74 5
30 75 4
30 76 5
30 77 7
30 78 4
30 79 7
30 80 5
30 81 5
30 82 7
30 83 3
30 84 7
30 85 7
30 86 5
30 87 12
30 88 5
30 89 6
30 90 7
30 91 7
30 92 3
30 93 3
30 94 9
30 95 5
30 96 7
30 97 6
30 98 10
30 99 5
30 100 6
30 101 8
30 102 5
30 103 12
30 104 7
30 105 7
30 106 3
30 107 6
30 108 9
30 109 11
30 110 4
30 111 7
30 112 5
30 113 2
30 114 8
30 115 5
30 116 6
30 117 4
30 118 13
30 119 9
30 120 2
30 121 14
30 122 7
30 123 11
30 124 7
30 125 6
30 126 7
30 127 8
30 128 7
30 129 5
30 130 7
30 131 8
30 132 3
30 133 8
30 134 6
30 135 7
30 136 3
30 137 12
30 138 13
30 139 5
30 140 2
30 141 8
30 142 10
30 143 8
30 144 2
30 145 11
30 146 4
30 147 3
30 148 9
30 149 10
30 150 6
30 151 7
30 152 3
30 153 6
30 154 5
30 155 9
30 156 6
30 157 1
30 158 5
30 159 6
30 160 12
30 161 5
30 162 7
30 163 4
30 165 6
30 166 7
30 167 9
30 168 4
30 169 3
30 170 5
30 171 9
30 172 6
30 173 10
30 174 5
30 175 6
30 176 8
30 177 6
30 178 8
30 179 6
30 180 7
30 181 4
30 182 11
30 183 9
30 184 5
30 185 6
30 186 8
30 187 8
30 188 8
30 189 6
30 190 9
30 191 11
30 192 6
30 193 5
30 194 9
30 195 6
30 196 7
30 197 3
30 198 3
30 199 5
30 200 8
31 1 3
31 2 6
31 3 10
31 4 6
31 5 8
31 6 5
31 7 4
31 8 7
31 9 3
31 10 5
31 11 5
31 12 5
31 13 8
31 14 4
31 15 14
31 16 9
31 17 4
31 18 7
31 19 5
31 20 5
31 21 3
31 22 8
31 23 9
31 24 3
31 25 6
31 26 4
31 27 11
31 28 6
31 29 5
31 30 5
31 31 2
31 32 2
31 33 3
31 34 6
31 35 3
31 36 6
31 37 6
31 38 9
31 39 11
31 41 10
31 42 7
31 43 4
31 44 6
31 45 4
31 46 9
31 47 1
31 48 4
31 49 10
31 50 8
31 51 4
31 52 9
31 53 4
31 54 7
31 55 6
31 56 7
31 57 7
31 58 8
31 59 9
31 60 8
31 61 8
31 62 4
31 63 3
31 64 5
31 65 10
31 66 8
31 67 6
31 68 12
31 69 4
31 70 11
31 71 3
31 72 4
31 73 6
31 74 8
31 75 7
31 76 3
31 77 3
31 78 8
31 79 7
31 80 3
31 81 4
31 82 2
31 83 5
31 84 4
31 85 8
31 86 6
31 87 3
31 88 6
31 89 2
31 90 1
31 91 5
31 92 9
31 93 4
31 94 4
31 95 7
31 96 9
31 97 7
31 98 7
31 99 8
31 100 5
31 101 7
31 102 9
31 103 8
31 104 4
31 105 5
31 106 9
31 107 14
31 108 4
31 109 5
31 110 5
31 111 7
31 112 4
31 113 12
31 114 7
31 115 4
31 116 5
31 117 5
31 118 7
31 119 5
31 120 12
31 121 6
31 122 7
31 123 6
31 124 5
31 125 1
31 126 5
31 127 5
31 128 8
31 129 4
31 130 9
31 131 9
31 132 4
31 133 9
31 134 9
31 135 7
31 136 8
31 137 6
31 138 9
31 139 8
31 140 7
31 141 4
31 142 6
31 143 4
31 144 6
31 145 6
31 146 8
31 147 6
31 148 1
31 149 7
31 150 6
31 151 6
31 152 5
31 153 6
31 154 10
31 155 3
31 156 5
31 157 4
31 158 10
31 159 8
31 160 7
31 161 5
31 162 6
31 163 7
31 164 5
31 165 5
31 166 2
31 167 3
31 168 4
31 169 3
31 170 1
31 171 13
31 172 6
31 173 10
31 174 4
31 175 4
31 176 5
31 177 4
31 178 7
31 179 7
31 180 9
31 181 5
31 182 3
31 183 7
31 184 4
31 185 6
31 186 7
31 188 7
31 189 5
31 190 1
31 191 7
31 193 10
31 194 11
31 195 4
31 196 6
31 197 3
31 198 5
31 199 4
31 200 3
32 1 8
32 2 3
32 3 2
32 4 8
32 5 6
32 6 5
32 7 4
32 8 10
32 9 14
32 10 7
32 11 8
32 12 4
32 13 4
32 14 3
32 15 10
32 16 5
32 17 5
32 18 6
32 19 5
32 20 8
32 21 3
32 22 6
32 23 3
32 24 7
32 25 4
32 26 4
32 27 4
32 28 9
32 29 8
32 30 8
32 31 6
32 32 7
32 33 6
32 34 4
32 35 11
32 36 9
32 37 8
32 38 5
32 39 6
32 40 6
32 41 4
32 42 4
32 43 10
32 44 6
32 45 5
32 46 5
32 47 4
32 48 8
32 49 10
32 50 6
32 51 7
32 52 7
32 53 3
32 54 7
32 55 6
32 56 3
32 57 7
32 58 7
32 59 7
32 60 4
32 61 3
32 62 2
32 63 8
32 64 5
32 65 5
32 66 4
32 67 4
32 68 6
32 69 8
32 70 9
32 71 10
32 72 6
32 73 4
32 74 6
32 75 7
32 76 4
32 77 8
32 78 6
32 79 9
32 80 9
32 81 3
32 82 3
32 83 3
32 84 7
32 85 4
32 86 3
32 87 8
32 88 5
32 89 14
32 90 5
32 91 8
32 92 6
32 93 4
32 94 5
32 95 6
32 96 7
32 97 4
32 98 7
32 99 4
32 100 5
32 101 6
32 102 8
32 103 3
32 104 5
32 105 7
32 106 4
32 107 6
32 108 5
32 109 10
32 110 6
32 111 5
32 112 8
32 113 6
32 114 3
32 115 6
32 116 8
32 117 5
32 118 6
32 119 1
32 120 4
32 121 7
32 122 11
32 123 6
32 124 9
32 125 1
32 126 8
32 127 5
32 128 8
32 129 4
32 130 8
32 131 8
32 132 6
32 133 6
32 134 5
32 135 7
32 136 9
32 137 8
32 138 4
32 139 12
32 140 9
32 141 3
32 142 4
32 143 7
32 144 3
32 145 5
32 146 1
32 147 3
32 148 2
32 149 8
32 150 5
32 151 11
32 152 6
32 153 8
32 154 5
32 155 5
32 156 7
32 157 7
32 158 6
32 159 9
32 160 9
32 161 8
32 162 9
32 163 4
32 164 7
32 165 7
32 166 3
32 167 9
32 168 5
32 169 4
32 170 8
32 171 12
32 172 5
32 173 6
32 174 8
32 175 9
32 176 7
32 177 4
32 178 6
32 179 6
32 180 5
32 181 7
32 182 6
32 183 12
32 184 3
32 185 2
32 186 6
32 187 10
32 188 5
32 189 5
32 190 7
32 191 8
32 192 3
32 193 2
32 194 4
32 195 2
32 196 6
32 197 4
32 198 6
32 199 4
32 200 6
33 1 3
33 2 6
33 3 1
33 4 8
33 5 11
33 6 6
33 7 5
33 8 5
33 9 2
33 10 7
33 11 7
33 12 4
33 13 7
33 14 9
33 15 7
33 16 8
33 17 2
33 18 8
33 19 5
33 20 14
33 21 7
33 22 3
33 23 1
33 24 7
33 25 5
33 26 4
33 27 6
33 28 2
33 29 7
33 30 2
33 31 5
33 32 8
33 33 10
33 34 4
33 35 1
33 36 7
33 37 3
33 38 6
33 39 7
33 40 7
33 41 10
33 42 10
33 43 16
33 44 6
33 45 7
33 46 9
33 47 9
33 48 9
33 49 8
33 50 6
33 51 7
33 52 5
33 53 6
33 54 4
33 55 3
33 56 10
33 57 4
33 58 3
33 59 10
33 60 6
33 61 5
33 62 6
33 63 11
33 64 10
33 65 8
33 66 4
33 67 12
33 68 2
33 69 8
33 70 4
33 71 7
33 72 5
33 73 7
33 74 6
33 75 4
33 76 5
33 77 4
33 78 7
33 79 8
33 80 4
33 81 7
33 82 2
33 83 4
33 84 2
33 85 6
33 86 5
33 87 8
33 88 3
33 89 6
33 90 7
33 91 3
33 92 6
33 93 5
33 94 4
33 95 8
33 96 8
33 97 4
33 98 6
33 99 9
33 100 5
33 101 13
33 102 6
33 103 6
33 104 6
33 105 4
33 106 6
33 107 14
33 108 6
33 109 5
33 110 4
33 111 6
33 112 6
33 113 6
33 114 4
33 115 3
33 116 7
33 117 7
33 118 9
33 119 5
33 120 4
33 121 5
33 122 9
33 123 10
33 124 5
33 125 6
33 126 5
33 127 5
33 128 3
33 129 6
33 130 12
33 131 3
33 132 5
33 133 5
33 134 7
33 135 8
33 136 7
33 137 6
33 138 6
33 139 3
33 140 9
33 141 12
33 142 2
33 143 10
33 144 5
33 145 5
33 146 1
33 147 7
33 148 4
33 149 6
33 150 3
33 151 8
33 152 12
33 153 7
33 154 8
33 155 6
33 156 3
33 157 5
33 158 8
33 159 1
33 160 6
33 161 6
33 162 4
33 163 4
33 164 8
33 165 3
33 166 8
33 167 8
33 168 8
33 169 8
33 170 3
33 171 4
33 172 8
33 173 4
33 174 14
33 175 8
33 176 4
33 177 4
33 178 3
33 179 8
33 180 5
33 181 2
33 182 5
33 183 5
33 184 7
33 185 3
33 186 3
33 187 7
33 188 10
33 189 3
33 190 14
33 191 10
33 192 7
33 193 7
33 194 6
33 195 9
33 196 5
33 197 11
33 198 7
33 199 7
33 200 3
34 1 4
34 2 8
34 3 5
34 4 7
34 5 8
34 6 4
34 7 3
34 8 4
34 9 2
34 10 5
34 11 8
34 12 2
34 13 9
34 14 4
34 15 7
34 16 4
34 17 7
34 18 6
34 19 2
34 20 3
34 21 4
34 22 7
34 23 9
34 24 4
34 25 6
34 26 3
34 27 9
34 28 3
34 29 11
34 30 7
34 31 9
34 32 6
34 33 7
34 34 4
34 35 8
34 36 5
34 37 4
34 38 4
34 39 4
34 40 8
34 41 4
34 42 3
34 43 5
34 44 1
34 45 7
34 46 7
34 47 8
34 48 5
34 49 3
34 50 8
34 51 4
34 52 8
34 53 6
34 54 7
34 55 7
34 56 9
34 57 9
34 58 7
34 59 5
34 60 7
34 61 4
34 62 5
34 63 9
34 64 10
34 65 7
34 66 6
34 67 6
34 68 3
34 69 2
34 70 5
34 71 6
34 72 12
34 73 7
34 74 4
34 75 7
34 76 5
34 77 5
34 78 2
34 79 1
34 80 4
34 81 4
34 82 6
34 83 3
34 84 6
34 85 4
34 86 7
34 87 6
34 88 7
34 89 4
34 90 8
34 91 5
34 92 5
34 93 9
34 94 7
34 95 8
34 96 9
34 97 5
34 98 5
34 99 7
34 100 4
34 101 2
34 102 4
34 103 7
34 104 10
34 105 7
34 106 6
34 107 7
34 108 9
34 109 1
34 110 7
34 111 6
34 112 2
34 113 11
34 114 8
34 115 6
34 116 8
34 117 11
34 118 7
34 119 9
34 120 3
34 121 9
34 122 7
34 123 8
34 124 8
34 125 9
34 126 9
34 127 4
34 128 9
34 129 9
34 130 4
34 131 9
34 132 5
34 133 10
34 134 11
34 135 6
34 136 5
34 137 3
34 138 5
34 139 5
34 140 8
34 141 4
34 142 5
34 143 7
34 144 3
34 145 8
34 146 2
34 147 8
34 148 4
34 149 6
34 150 7
34 151 8
34 152 4
34 153 5
34 154 13
34 155 6
34 156 8
34 157 7
34 158 7
34 159 2
34 160 6
34 161 9
34 162 9
34 163 5
34 164 9
34 165 10
34 166 5
34 167 5
34 168 7
34 169 7
34 170 6
34 171 5
34 172 8
34 173 4
34 174 2
34 175 7
34 176 3
34 177 11
34 178 3
34 179 6
34 180 7
34 181 4
34 182 10
34 183 4
34 184 9
34 185 4
34 186 10
34 187 7
34 188 6
34 189 8
34 190 7
34 191 4
34 192 4
34 193 6
34 194 6
34 195 6
34 196 6
34 197 4
34 198 4
34 199 10
34 200 5
35 2 4
35 3 1
35 4 6
35 5 5
35 6 5
35 7 2
35 8 1
35 9 4
35 10 9
35 11 2
35 12 6
35 13 4
35 14 1
35 16 2
35 17 3
35 18 1
35 19 5
35 20 1
35 21 5
35 22 2
35 24 3
35 25 2
35 26 3
35 27 3
35 28 7
35 29 1
35 30 1
35 31 1
35 34 1
35 35 2
35 36 5
35 37 4
35 38 2
35 39 6
35 40 1
35 41 1
35 42 4
35 43 1
35 44 2
35 45 3
35 46 2
35 47 1
35 48 2
35 49 1
35 51 1
35 53 1
35 54 1
35 55 1
35 56 3
35 57 5
35 58 1
35 59 5
35 60 3
35 61 2
35 62 1
35 63 2
35 65 9
35 66 6
35 67 4
35 68 1
35 69 4
35 70 1
35 71 4
35 72 3
35 73 3
35 75 4
35 76 1
35 78 1
35 79 5
35 81 2
35 82 3
35 83 1
35 84 6
35 86 4
35 87 2
35 88 3
35 89 1
35 90 1
35 91 5
35 92 4
35 93 8
35 94 4
35 95 6
35 96 5
35 97 2
35 98 1
35 99 2
35 100 4
35 101 1
35 103 2
35 105 7
35 106 2
35 108 4
35 110 2
35 111 3
35 112 2
35 113 4
35 114 5
35 115 2
35 116 2
35 117 5
35 118 5
35 119 1
35 120 3
35 121 2
35 122 5
35 123 3
35 124 1
35 125 16
35 126 1
35 127 4
35 128 4
35 131 1
35 133 5
35 134 5
35 135 2
35 136 4
35 137 3
35 138 1
35 139 4
35 140 1
35 141 2
35 142 3
35 143 2
35 144 2
35 145 2
35 146 1
35 147 1
35 149 3
35 150 10
35 151 3
35 152 1
35 153 2
35 155 2
35 156 5
35 157 1
35 158 3
35 159 1
35 160 1
35 162 1
35 163 5
35 164 1
35 167 1
35 169 2
35 170 4
35 171 2
35 172 4
35 173 3
35 174 3
35 175 1
35 176 2
35 177 3
35 179 2
35 180 1
35 181 6
35 182 2
35 183 2
35 184 7
35 185 3
35 186 5
35 187 2
35 188 2
35 191 2
35 192 4
35 193 4
35 194 2
35 195 3
35 196 3
35 197 2
35 198 3
35 199 2
35 200 1
36 1 1
36 2 6
36 3 1
36 4 3
36 5 4
36 6 4
36 7 3
36 8 2
36 9 2
36 10 2
36 12 3
36 13 1
36 14 1
36 16 7
36 17 3
36 18 3
36 19 1
36 20 2
36 21 5
36 22 2
36 23 1
36 25 2
36 26 2
36 27 1
36 28 5
36 29 1
36 30 1
36 32 1
36 33 1
36 35 2
36 36 6
36 37 9
36 38 1
36 39 2
36 40 1
36 42 6
36 43 1
36 44 7
36 45 1
36 47 1
36 48 6
36 49 2
36 50 6
36 51 5
36 52 2
36 53 5
36 54 2
36 55 3
36 57 3
36 58 4
36 59 5
36 60 6
36 62 1
36 63 4
36 64 2
36 65 4
36 66 2
36 67 3
36 69 5
36 70 1
36 71 2
36 72 5
36 73 3
36 74 2
36 75 2
36 76 2
36 77 2
36 79 3
36 81 3
36 82 1
36 83 2
36 84 3
36 85 1
36 86 3
36 87 5
36 88 1
36 89 1
36 90 4
36 91 1
36 92 2
36 93 4
36 94 8
36 95 1
36 96 3
36 97 2
36 98 2
36 100 2
36 101 1
36 102 2
36 103 2
36 105 9
36 106 4
36 107 2
36 108 1
36 109 3
36 110 2
36 111 1
36 112 2
36 113 5
36 114 2
36 115 3
36 116 3
36 117 5
36 118 5
36 120 4
36 123 6
36 124 3
36 125 5
36 126 1
36 127 1
36 128 4
36 129 1
36 130 2
36 131 6
36 132 2
36 133 2
36 134 3
36 135 1
36 136 2
36 137 4
36 139 3
36 140 1
36 141 1
36 142 3
36 143 4
36 144 1
36 145 2
36 146 3
36 148 4
36 149 2
36 150 4
36 151 4
36 152 3
36 153 1
36 154 2
36 155 8
36 156 6
36 157 1
36 158 3
36 159 3
36 160 3
36 161 3
36 162 1
36 163 2
36 164 1
36 165 1
36 166 1
36 167 3
36 169 2
36 170 1
36 171 1
36 172 1
36 173 2
36 174 1
36 175 1
36 177 5
36 178 4
36 179 2
36 180 3
36 181 3
36 182 1
36 183 2
36 184 1
36 186 1
36 187 4
36 188 1
36 189 1
36 190 2
36 193 2
36 195 1
36 196 1
36 197 3
36 198 3
36 199 2
37 1 1
37 2 3
37 4 1
37 5 2
37 6 3
37 8 1
37 9 1
37 10 2
37 11 2
37 12 4
37 13 1
37 15 1
37 16 7
37 17 4
37 18 1
37 19 4
37 21 5
37 22 2
37 23 1
37 24 1
37 25 1
37 26 2
37 27 1
37 28 6
37 29 2
37 30 3
37 32 1
37 33 2
37 35 2
37 36 4
37 37 4
37 38 3
37 39 6
37 41 2
37 42 5
37 44 3
37 45 1
37 46 3
37 47 1
37 48 1
37 50 1
37 51 4
37 52 2
37 53 2
37 55 1
37 56 2
37 57 2
37 59 3
37 60 5
37 62 2
37 63 6
37 64 1
37 65 4
37 67 6
37 69 6
37 70 2
37 71 3
37 72 9
37 73 6
37 74 1
37 75 1
37 76 3
37 79 1
37 80 1
37 81 1
37 82 4
37 83 2
37 84 3
37 85 4
37 86 2
37 87 4
37 88 1
37 89 2
37 90 5
37 91 2
37 92 4
37 93 2
37 94 1
37 95 3
37 96 2
37 97 1
37 100 1
37 101 3
37 102 5
37 104 3
37 105 4
37 106 2
37 107 3
37 108 3
37 110 1
37 112 2
37 113 4
37 114 4
37 115 2
37 116 2
37 117 3
37 118 6
37 120 5
37 122 2
37 123 2
37 124 2
37 125 4
37 127 3
37 129 1
37 130 2
37 131 1
37 132 4
37 133 3
37 134 9
37 135 4
37 136 5
37 137 5
37 138 1
37 139 1
37 140 1
37 141 1
37 142 1
37 143 9
37 144 1
37 145 1
37 148 2
37 149 3
37 150 6
37 151 5
37 152 1
37 153 1
37 155 5
37 156 2
37 158 2
37 160 1
37 161 3
37 162 1
37 163 8
37 164 2
37 165 1
37 168 1
37 169 1
37 170 6
37 171 4
37 172 8
37 173 5
37 174 2
37 176 3
37 177 5
37 179 2
37 180 5
37 181 4
37 182 1
37 183 3
37 184 1
37 185 1
37 186 3
37 187 6
37 188 1
37 189 1
37 193 4
37 194 6
37 195 1
37 196 5
37 197 3
37 198 2
37 199 2
37 200 1
38 1 1
38 2 6
38 3 1
38 4 6
38 5 2
38 6 3
38 7 2
38 8 4
38 9 4
38 10 5
38 11 1
38 12 10
38 13 1
38 14 2
38 15 2
38 16 4
38 17 8
38 19 4
38 21 6
38 22 4
38 24 5
38 27 6
38 28 8
38 30 1
38 31 2
38 32 1
38 35 2
38 36 7
38 37 3
38 38 2
38 39 4
38 40 4
38 41 1
38 42 5
38 43 1
38 44 6
38 45 1
38 47 2
38 50 6
38 51 2
38 52 3
38 53 1
38 54 4
38 56 3
38 57 3
38 58 1
38 59 7
38 60 6
38 61 5
38 63 7
38 64 7
38 65 4
38 66 3
38 67 1
38 68 3
38 69 4
38 70 1
38 71 4
38 72 6
38 73 4
38 74 3
38 75 3
38 77 3
38 78 2
38 79 3
38 80 2
38 81 1
38 82 1
38 83 1
38 84 6
38 85 3
38 86 1
38 87 3
38 88 1
38 90 1
38 91 3
38 92 5
38 93 3
38 94 3
38 95 5
38 98 1
38 100 4
38 101 2
38 103 1
38 105 6
38 106 9
38 108 9
38 109 2
38 110 2
38 113 6
38 114 5
38 116 2
38 117 5
38 118 8
38 119 1
38 120 4
38 121 3
38 122 1
38 123 3
38 124 1
38 125 7
38 129 3
38 130 1
38 131 1
38 132 2
38 133 6
38 134 4
38 135 1
38 136 3
38 137 3
38 139 2
38 142 2
38 143 2
38 144 3
38 146 1
38 147 3
38 148 3
38 150 7
38 151 2
38 153 1
38 154 5
38 155 6
38 156 3
38 157 1
38 158 2
38 159 2
38 160 1
38 161 5
38 163 4
38 164 4
38 165 1
38 166 3
38 168 2
38 170 3
38 172 6
38 173 6
38 174 2
38 175 1
38 176 1
38 177 1
38 178 1
38 179 6
38 180 4
38 181 2
38 182 1
38 183 2
38 184 1
38 185 1
38 186 2
38 187 4
38 188 2
38 189 3
38 191 1
38 192 1
38 193 1
38 194 4
38 195 4
38 196 2
38 197 3
38 199 2
38 200 2
39 1 1
39 2 4
39 3 2
39 4 7
39 5 3
39 6 3
39 8 1
39 10 1
39 11 3
39 12 2
39 14 2
39 16 5
39 17 4
39 19 2
39 20 2
39 21 3
39 22 1
39 23 2
39 24 2
39 25 1
39 26 2
39 27 3
39 28 4
39 29 1
39 32 1
39 33 3
39 36 1
39 37 3
39 38 1
39 39 6
39 40 2
39 41 1
39 42 4
39 43 1
39 44 5
39 45 5
39 46 1
39 47 1
39 48 1
39 49 3
39 51 2
39 52 2
39 54 5
39 55 2
39 56 2
39 57 8
39 58 1
39 59 1
39 60 5
39 62 1
39 63 9
39 64 1
39 65 3
39 66 2
39 67 3
39 68 1
39 69 3
39 70 1
39 71 3
39 72 5
39 73 5
39 74 2
39 75 2
39 78 1
39 79 3
39 80 3
39 81 1
39 82 1
39 83 5
39 84 5
39 85 2
39 86 4
39 87 4
39 88 2
39 89 3
39 90 5
39 92 4
39 93 6
39 94 8
39 95 7
39 96 7
39 97 3
39 99 3
39 100 2
39 101 3
39 103 1
39 104 2
39 105 4
39 106 4
39 107 1
39 108 4
39 109 1
39 110 1
39 111 1
39 112 1
39 113 2
39 114 1
39 117 9
39 118 3
39 119 3
39 120 5
39 121 3
39 122 1
39 123 3
39 125 3
39 126 1
39 127 1
39 128 2
39 129 3
39 130 1
39 131 3
39 132 3
39 133 3
39 134 4
39 136 3
39 137 1
39 138 2
39 139 1
39 140 1
39 142 2
39 143 3
39 145 3
39 146 4
39 148 2
39 149 1
39 150 2
39 151 3
39 152 4
39 155 4
39 156 5
39 157 1
39 158 1
39 159 1
39 160 1
39 161 7
39 163 1
39 164 1
39 165 2
39 166 2
39 167 1
39 168 1
39 169 3
39 170 1
39 172 4
39 173 6
39 174 3
39 176 2
39 177 8
39 178 6
39 179 4
39 180 3
39 181 3
39 182 1
39 183 2
39 184 2
39 185 3
39 186 2
39 187 7
39 188 3
39 189 2
39 190 3
39 193 2
39 194 4
39 195 3
39 196 3
39 197 2
39 198 2
39 200 1
40 1 3
40 2 3
40 3 2
40 4 5
40 6 9
40 7 5
40 9 1
40 10 2
40 12 2
40 13 1
40 15 1
40 16 4
40 17 5
40 19 1
40 20 1
40 21 3
40 22 1
40 23 1
40 24 4
40 25 2
40 26 2
40 27 2
40 28 1
40 31 1
40 32 2
40 33 1
40 34 3
40 35 3
40 36 4
40 37 6
40 38 3
40 39 3
40 40 4
40 41 5
40 42 5
40 43 2
40 44 3
40 45 1
40 46 1
40 47 1
40 48 1
40 49 1
40 50 3
40 51 4
40 52 2
40 53 2
40 56 1
40 57 3
40 59 3
40 60 3
40 61 1
40 62 1
40 63 3
40 64 1
40 65 2
40 66 1
40 67 2
40 68 1
40 69 5
40 70 2
40 71 3
40 72 3
40 73 4
40 74 2
40 78 1
40 79 5
40 80 2
40 81 3
40 82 2
40 83 3
40 84 2
40 85 3
40 86 2
40 87 2
40 88 4
40 89 1
40 90 9
40 92 4
40 93 6
40 94 6
40 95 1
40 96 4
40 98 1
40 99 1
40 100 2
40 101 2
40 102 2
40 103 3
40 104 2
40 105 5
40 106 4
40 107 1
40 108 5
40 111 1
40 112 2
40 113 5
40 114 4
40 116 1
40 117 5
40 118 4
40 119 1
40 120 3
40 121 1
40 123 6
40 124 1
40 125 1
40 126 1
40 127 2
40 128 3
40 129 1
40 130 3
40 132 1
40 133 2
40 134 5
40 135 2
40 136 4
40 137 2
40 140 2
40 141 1
40 142 6
40 143 2
40 144 3
40 145 7
40 146 1
40 147 1
40 148 2
40 150 2
40 151 9
40 152 3
40 153 1
40 154 3
40 155 5
40 156 8
40 157 2
40 159 4
40 160 3
40 161 5
40 162 1
40 163 8
40 164 1
40 165 1
40 166 3
40 167 2
40 168 2
40 169 1
40 170 8
40 172 4
40 173 2
40 174 2
40 175 3
40 176 3
40 177 2
40 178 2
40 179 2
40 180 2
40 181 5
40 182 1
40 183 2
40 184 3
40 186 4
40 187 3
40 189 2
40 190 1
40 191 3
40 192 3
40 193 1
40 194 2
40 195 3
40 196 3
40 198 2
41 2 8
41 3 4
41 4 2
41 5 2
41 6 3
41 7 1
41 8 2
41 9 2
41 10 3
41 11 1
41 12 3
41 13 3
41 16 2
41 17 6
41 18 1
41 19 8
41 20 2
41 21 3
41 22 3
41 23 1
41 24 1
41 25 3
41 28 8
41 29 2
41 30 1
41 31 4
41 33 2
41 34 1
41 36 2
41 37 4
41 38 2
41 39 5
41 40 1
41 41 2
41 42 5
41 43 1
41 44 3
41 45 5
41 46 1
41 48 1
41 49 1
41 50 3
41 51 1
41 52 2
41 53 2
41 54 3
41 55 1
41 56 3
41 57 5
41 58 1
41 59 8
41 60 3
41 61 1
41 62 1
41 63 5
41 64 4
41 65 4
41 66 3
41 67 1
41 68 1
41 69 1
41 70 1
41 71 2
41 73 2
41 74 1
41 76 1
41 77 2
41 78 1
41 79 4
41 82 1
41 83 1
41 84 3
41 85 4
41 87 3
41 88 1
41 89 3
41 90 5
41 92 5
41 93 1
41 94 5
41 95 4
41 96 3
41 97 3
41 99 5
41 100 3
41 101 2
41 103 2
41 104 1
41 105 2
41 106 4
41 107 2
41 108 5
41 109 1
41 110 3
41 111 2
41 112 3
41 113 1
41 114 2
41 115 4
41 116 3
41 117 5
41 118 9
41 119 1
41 121 3
41 122 6
41 125 3
41 128 1
41 129 3
41 130 1
41 131 1
41 132 1
41 133 2
41 134 4
41 135 1
41 136 2
41 137 1
41 138 3
41 139 2
41 140 2
41 141 3
41 142 6
41 143 4
41 144 2
41 145 6
41 148 1
41 150 5
41 151 5
41 153 2
41 155 7
41 156 3
41 157 2
41 158 2
41 159 2
41 160 4
41 161 5
41 162 1
41 163 5
41 164 6
41 166 1
41 167 2
41 168 2
41 170 2
41 171 4
41 172 4
41 173 4
41 174 4
41 176 1
41 177 7
41 178 2
41 179 5
41 180 7
41 181 3
41 182 1
41 183 2
41 185 3
41 187 5
41 188 2
41 189 3
41 190 2
41 191 2
41 192 2
41 193 1
41 194 3
41 196 4
41 197 1
41 198 3
41 199 3
41 200 1
42 2 6
42 3 5
42 4 11
42 5 1
42 6 3
42 8 2
42 9 4
42 10 11
42 12 5
42 13 2
42 14 1
42 15 1
42 16 1
42 17 7
42 18 1
42 19 2
42 20 3
42 21 2
42 24 3
42 25 1
42 27 1
42 28 6
42 29 2
42 30 2
42 31 2
42 32 4
42 34 1
42 36 5
42 37 4
42 39 1
42 40 3
42 42 3
42 44 2
42 45 1
42 46 2
42 47 2
42 48 1
42 49 2
42 50 4
42 51 2
42 52 2
42 53 2
42 54 2
42 56 2
42 57 6
42 58 1
42 59 5
42 60 8
42 62 3
42 63 6
42 64 1
42 65 5
42 66 1
42 67 10
42 69 2
42 70 1
42 71 4
42 72 1
42 73 6
42 74 1
42 75 1
42 76 2
42 77 1
42 79 3
42 83 6
42 84 2
42 85 3
42 86 2
42 87 5
42 88 1
42 90 4
42 91 1
42 92 6
42 93 1
42 94 2
42 95 5
42 98 1
42 100 2
42 101 1
42 102 2
42 103 6
42 104 2
42 105 2
42 106 2
42 107 4
42 108 2
42 109 1
42 110 1
42 111 2
42 112 2
42 113 2
42 114 2
42 115 3
42 117 1
42 118 3
42 120 2
42 121 1
42 122 2
42 123 2
42 124 1
42 125 4
42 126 1
42 128 1
42 131 2
42 132 1
42 133 2
42 134 2
42 136 1
42 137 2
42 138 4
42 141 2
42 142 5
42 143 3
42 145 3
42 147 1
42 148 1
42 150 6
42 151 8
42 153 2
42 155 3
42 156 5
42 158 3
42 159 2
42 160 2
42 161 6
42 162 1
42 163 2
42 164 2
42 165 2
42 166 2
42 167 1
42 168 2
42 169 4
42 170 13
42 171 3
42 172 1
42 173 5
42 174 5
42 175 4
42 176 1
42 177 6
42 178 3
42 179 1
42 180 5
42 181 3
42 182 1
42 183 2
42 184 1
42 185 2
42 187 3
42 188 4
42 190 3
42 192 3
42 193 4
42 194 5
42 195 2
42 196 5
42 197 2
42 198 2
42 199 2
42 200 2
43 1 3
43 2 3
43 3 1
43 4 5
43 5 4
43 6 5
43 7 1
43 8 1
43 9 3
43 10 5
43 12 6
43 13 1
43 14 1
43 16 1
43 19 2
43 20 4
43 21 5
43 22 3
43 24 3
43 25 2
43 26 2
43 27 2
43 28 2
43 29 2
43 30 1
43 31 1
43 32 1
43 33 2
43 34 1
43 35 1
43 36 6
43 37 7
43 38 3
43 39 6
43 40 2
43 42 9
43 43 1
43 44 6
43 45 3
43 47 1
43 50 4
43 51 2
43 52 1
43 53 1
43 54 1
43 57 4
43 58 1
43 59 6
43 60 7
43 62 2
43 63 4
43 65 2
43 66 1
43 67 5
43 68 2
43 69 6
43 70 2
43 71 2
43 72 5
43 73 1
43 74 2
43 75 3
43 78 1
43 79 6
43 80 5
43 82 2
43 83 3
43 84 3
43 85 5
43 87 5
43 89 1
43 90 2
43 91 2
43 92 4
43 93 2
43 94 3
43 95 4
43 96 5
43 97 3
43 98 2
43 99 1
43 101 6
43 102 2
43 103 1
43 105 4
43 106 4
43 107 2
43 108 3
43 109 1
43 110 6
43 111 1
43 112 1
43 113 3
43 114 3
43 115 1
43 116 1
43 117 7
43 118 3
43 119 3
43 120 4
43 121 1
43 123 3
43 124 2
43 125 4
43 126 2
43 127 1
43 128 2
43 129 1
43 130 2
43 131 1
43 132 4
43 133 3
43 134 3
43 136 5
43 138 2
43 139 6
43 140 1
43 141 4
43 142 1
43 143 6
43 144 2
43 145 5
43 146 1
43 147 1
43 148 4
43 149 1
43 150 5
43 151 3
43 152 4
43 153 3
43 154 2
43 155 9
43 157 1
43 158 1
43 160 2
43 161 5
43 162 3
43 163 3
43 165 1
43 166 2
43 170 2
43 171 4
43 172 2
43 173 4
43 174 4
43 177 7
43 180 4
43 181 1
43 182 1
43 183 1
43 184 1
43 185 1
43 186 2
43 187 2
43 188 2
43 190 3
43 191 2
43 192 1
43 193 3
43 194 5
43 195 1
43 196 2
43 197 1
43 198 2
43 200 3
44 1 2
44 2 1
44 3 2
44 4 6
44 5 4
44 6 4
44 7 4
44 9 2
44 10 1
44 11 3
44 12 2
44 13 2
44 14 1
44 16 1
44 17 5
44 19 2
44 20 1
44 21 6
44 23 1
44 24 3
44 25 2
44 26 2
44 27 1
44 28 5
44 29 2
44 31 2
44 32 3
44 33 1
44 34 3
44 35 2
44 36 2
44 37 8
44 39 9
44 41 1
44 42 2
44 43 2
44 44 9
44 45 4
44 46 3
44 47 3
44 48 1
44 49 3
44 50 7
44 51 2
44 52 2
44 54 1
44 56 3
44 57 2
44 58 1
44 59 10
44 60 8
44 61 1
44 62 2
44 63 4
44 64 4
44 65 4
44 67 7
44 68 2
44 69 3
44 70 1
44 71 5
44 72 5
44 73 1
44 74 1
44 75 3
44 76 1
44 77 1
44 78 1
44 79 6
44 80 3
44 84 3
44 85 2
44 87 5
44 88 1
44 89 2
44 90 4
44 92 3
44 93 2
44 94 5
44 95 3
44 96 2
44 97 4
44 98 2
44 99 2
44 100 5
44 101 2
44 102 1
44 103 2
44 104 1
44 105 4
44 106 2
44 107 5
44 108 6
44 109 1
44 110 5
44 111 2
44 113 1
44 115 2
44 116 1
44 117 2
44 118 3
44 120 2
44 121 5
44 122 3
44 123 8
44 125 6
44 126 2
44 127 2
44 128 1
44 129 2
44 130 1
44 131 2
44 132 2
44 133 8
44 134 6
44 135 4
44 136 9
44 137 3
44 138 2
44 139 3
44 140 3
44 142 2
44 143 3
44 144 3
44 145 4
44 146 1
44 147 2
44 150 4
44 151 8
44 154 1
44 155 3
44 156 4
44 157 2
44 158 5
44 159 1
44 160 4
44 161 4
44 162 3
44 164 1
44 166 4
44 167 1
44 168 2
44 169 1
44 170 4
44 171 1
44 172 5
44 173 2
44 174 2
44 175 1
44 176 1
44 177 3
44 178 2
44 179 3
44 180 2
44 181 7
44 182 1
44 183 4
44 185 1
44 186 1
44 187 1
44 189 2
44 191 1
44 192 1
44 193 2
44 195 1
44 196 2
44 197 7
44 198 2
44 199 3
44 200 1
45 1 1
45 2 5
45 3 5
45 4 2
45 5 3
45 6 5
45 7 1
45 8 3
45 9 2
45 10 3
45 11 1
45 12 3
45 13 1
45 14 1
45 15 1
45 16 1
45 17 5
45 18 1
45 19 4
45 20 3
45 21 6
45 22 2
45 23 1
45 24 1
45 25 2
45 26 6
45 27 3
45 28 4
45 29 1
45 30 2
45 31 2
45 33 1
45 34 1
45 35 11
45 36 1
45 37 4
45 38 1
45 39 5
45 40 1
45 41 3
45 42 1
45 43 1
45 44 5
45 46 3
45 47 2
45 48 3
45 49 2
45 50 5
45 51 2
45 52 2
45 54 1
45 55 1
45 57 9
45 59 5
45 60 5
45 61 1
45 62 2
45 63 5
45 64 1
45 65 4
45 66 1
45 67 5
45 68 2
45 70 2
45 71 2
45 72 5
45 73 3
45 74 1
45 76 1
45 78 1
45 79 1
45 82 2
45 83 2
45 84 6
45 85 5
45 86 1
45 87 4
45 88 2
45 89 3
45 90 6
45 91 2
45 93 5
45 94 6
45 95 4
45 96 2
45 97 3
45 99 2
45 100 1
45 101 2
45 103 2
45 104 5
45 105 3
45 106 1
45 108 3
45 110 5
45 111 1
45 112 2
45 113 6
45 114 2
45 115 2
45 116 2
45 117 7
45 118 3
45 119 1
45 120 7
45 121 2
45 122 2
45 123 1
45 124 2
45 125 1
45 126 2
45 127 2
45 128 3
45 129 1
45 130 2
45 131 2
45 132 1
45 133 3
45 134 6
45 136 4
45 137 2
45 138 3
45 140 2
45 141 1
45 143 1
45 145 1
45 146 1
45 147 1
45 148 3
45 149 2
45 150 1
45 151 8
45 152 1
45 153 2
45 154 1
45 155 3
45 156 3
45 157 2
45 158 2
45 159 3
45 160 1
45 161 4
45 162 1
45 163 4
45 164 1
45 165 1
45 168 5
45 169 1
45 170 2
45 171 2
45 172 6
45 173 3
45 174 3
45 175 3
45 176 3
45 177 3
45 178 1
45 179 1
45 180 2
45 181 1
45 184 3
45 185 2
45 186 1
45 187 6
45 189 1
45 190 2
45 191 2
45 192 1
45 193 4
45 194 8
45 196 4
45 197 1
45 199 1
46 1 3
46 2 6
46 4 4
46 5 4
46 6 2
46 7 2
46 8 1
46 9 1
46 10 5
46 11 1
46 12 3
46 13 1
46 14 2
46 15 1
46 16 6
46 17 2
46 18 2
46 19 11
46 20 3
46 21 6
46 22 3
46 23 6
46 25 1
46 26 1
46 27 3
46 28 9
46 29 2
46 30 1
46 34 3
46 35 2
46 36 6
46 37 4
46 39 2
46 40 1
46 41 1
46 42 5
46 43 2
46 44 3
46 45 1
46 47 5
46 48 3
46 49 2
46 50 4
46 51 1
46 52 3
46 53 2
46 54 2
46 55 3
46 56 2
46 57 3
46 58 5
46 59 6
46 60 1
46 61 1
46 62 1
46 63 1
46 64 1
46 65 5
46 66 1
46 67 4
46 68 3
46 69 1
46 71 6
46 72 4
46 73 1
46 74 5
46 75 4
46 76 1
46 77 1
46 79 3
46 81 1
46 82 1
46 83 2
46 84 3
46 85 3
46 87 3
46 88 2
46 89 2
46 90 4
46 91 1
46 92 5
46 93 2
46 94 6
46 95 5
46 96 7
46 97 2
46 98 1
46 99 1
46 102 1
46 103 1
46 104 1
46 105 3
46 106 4
46 107 1
46 108 5
46 109 3
46 110 2
46 112 2
46 113 3
46 114 2
46 115 1
46 116 5
46 117 1
46 118 3
46 119 2
46 120 2
46 121 1
46 123 5
46 124 1
46 125 4
46 126 1
46 127 1
46 128 2
46 130 2
46 132 1
46 133 5
46 134 7
46 136 4
46 137 5
46 138 2
46 139 2
46 140 2
46 141 1
46 143 4
46 144 1
46 145 4
46 148 1
46 150 5
46 151 4
46 152 3
46 153 2
46 154 1
46 155 6
46 156 5
46 157 4
46 158 2
46 159 1
46 162 3
46 163 9
46 164 1
46 165 1
46 166 4
46 167 3
46 168 3
46 170 7
46 171 2
46 172 5
46 173 3
46 174 3
46 176 1
46 177 5
46 179 2
46 180 7
46 181 3
46 182 1
46 184 1
46 185 1
46 186 3
46 187 3
46 188 2
46 189 1
46 191 1
46 192 3
46 193 8
46 194 5
46 195 2
46 196 3
46 197 3
46 198 1
46 200 1
47 1 2
47 2 2
47 3 2
47 4 6
47 5 2
47 6 1
47 7 1
47 8 3
47 9 1
47 10 2
47 11 2
47 12 3
47 13 3
47 14 2
47 16 4
47 17 7
47 18 2
47 19 3
47 20 1
47 21 3
47 22 4
47 23 4
47 24 3
47 25 1
47 26 5
47 28 4
47 29 1
47 31 4
47 32 3
47 33 1
47 34 2
47 35 1
47 36 1
47 37 3
47 38 1
47 39 4
47 41 5
47 42 1
47 43 1
47 44 2
47 45 5
47 46 1
47 47 1
47 49 1
47 50 4
47 51 1
47 54 2
47 56 3
47 57 5
47 58 2
47 59 2
47 60 6
47 63 5
47 64 5
47 65 6
47 67 3
47 69 5
47 70 3
47 71 3
47 72 8
47 73 6
47 74 1
47 76 1
47 77 2
47 78 1
47 79 4
47 80 2
47 81 1
47 82 3
47 84 3
47 85 1
47 86 2
47 87 1
47 88 3
47 89 2
47 90 6
47 91 3
47 92 2
47 93 9
47 94 5
47 95 5
47 96 2
47 97 3
47 98 3
47 99 2
47 101 1
47 103 2
47 104 1
47 105 4
47 106 2
47 107 2
47 108 2
47 110 2
47 112 4
47 113 2
47 114 5
47 115 3
47 117 2
47 118 4
47 119 1
47 120 4
47 121 1
47 122 1
47 123 4
47 124 1
47 125 4
47 126 1
47 127 4
47 128 1
47 129 1
47 130 1
47 133 4
47 134 3
47 135 4
47 136 3
47 137 2
47 138 3
47 140 1
47 141 1
47 142 1
47 143 6
47 144 3
47 145 3
47 146 1
47 147 1
47 148 3
47 149 2
47 150 4
47 151 7
47 154 1
47 155 6
47 156 2
47 157 5
47 158 2
47 159 1
47 161 5
47 162 4
47 163 5
47 164 1
47 165 2
47 167 4
47 169 2
47 170 4
47 171 1
47 172 7
47 173 4
47 174 2
47 176 1
47 177 3
47 178 5
47 179 2
47 180 1
47 181 5
47 182 4
47 186 1
47 187 5
47 188 2
47 189 1
47 190 1
47 191 1
47 192 3
47 193 3
47 194 6
47 196 5
47 199 2
48 1 1
48 2 4
48 3 2
48 4 3
48 5 4
48 6 6
48 7 2
48 8 2
48 9 2
48 10 3
48 11 3
48 12 5
48 13 1
48 14 2
48 15 2
48 16 2
48 17 4
48 18 3
48 19 7
48 20 2
48 23 1
48 24 1
48 26 1
48 27 1
48 28 5
48 29 1
48 32 1
48 33 2
48 34 2
48 35 3
48 36 4
48 37 2
48 39 4
48 40 3
48 41 1
48 42 6
48 44 4
48 45 2
48 46 1
48 47 1
48 48 3
48 49 4
48 50 3
48 52 3
48 53 2
48 56 1
48 57 5
48 58 3
48 59 7
48 60 3
48 61 2
48 62 5
48 63 6
48 64 1
48 65 4
48 67 1
48 68 2
48 69 7
48 70 1
48 71 2
48 72 8
48 73 6
48 74 1
48 75 2
48 76 1
48 77 2
48 79 5
48 81 3
48 82 3
48 83 6
48 84 1
48 87 7
48 88 1
48 89 3
48 90 4
48 91 1
48 92 5
48 93 6
48 94 3
48 95 1
48 96 2
48 97 1
48 98 2
48 99 1
48 100 1
48 101 1
48 102 4
48 103 3
48 105 3
48 106 3
48 107 2
48 108 3
48 109 1
48 111 1
48 112 1
48 113 2
48 114 1
48 116 1
48 117 1
48 118 4
48 119 1
48 120 3
48 121 2
48 122 2
48 123 4
48 124 3
48 125 3
48 126 2
48 131 2
48 132 1
48 133 6
48 134 7
48 135 1
48 136 6
48 137 2
48 138 1
48 139 1
48 140 2
48 142 3
48 143 2
48 144 1
48 145 6
48 147 2
48 149 3
48 150 3
48 151 12
48 152 2
48 153 1
48 154 4
48 155 6
48 156 6
48 157 1
48 159 3
48 160 1
48 161 3
48 162 5
48 163 3
48 164 2
48 165 2
48 166 1
48 168 2
48 169 2
48 170 7
48 171 1
48 172 6
48 173 2
48 174 1
48 176 2
48 177 3
48 178 2
48 180 6
48 181 3
48 183 1
48 184 2
48 186 1
48 187 6
48 188 4
48 190 1
48 191 1
48 192 3
48 193 1
48 194 6
48 195 1
48 196 5
48 197 1
48 199 1
48 200 1
49 1 4
49 2 2
49 3 4
49 4 7
49 5 4
49 6 6
49 7 3
49 8 2
49 10 7
49 11 2
49 12 10
49 14 2
49 15 3
49 16 7
49 17 3
49 19 2
49 21 1
49 22 1
49 23 4
49 24 1
49 25 1
49 26 2
49 27 2
49 28 1
49 29 1
49 31 3
49 32 1
49 33 1
49 36 1
49 37 3
49 39 2
49 40 3
49 41 4
49 42 2
49 44 4
49 45 1
49 47 1
49 48 1
49 49 2
49 50 4
49 51 5
49 52 2
49 53 3
49 54 5
49 55 2
49 56 1
49 57 4
49 58 3
49 59 5
49 60 2
49 61 2
49 62 3
49 63 7
49 64 2
49 65 5
49 66 1
49 67 1
49 69 4
49 70 1
49 71 5
49 72 2
49 73 5
49 74 2
49 75 2
49 76 4
49 77 3
49 78 2
49 79 3
49 80 1
49 81 4
49 82 1
49 83 2
49 84 8
49 85 6
49 86 1
49 88 1
49 89 2
49 90 5
49 91 1
49 92 5
49 93 3
49 94 1
49 95 5
49 96 3
49 97 5
49 98 1
49 100 2
49 101 1
49 103 3
49 104 2
49 105 1
49 106 4
49 108 8
49 109 2
49 110 2
49 111 2
49 112 1
49 113 1
49 114 1
49 115 1
49 116 2
49 117 3
49 118 7
49 119 1
49 120 2
49 122 1
49 123 4
49 125 2
49 126 4
49 127 1
49 128 1
49 129 2
49 130 1
49 131 3
49 132 1
49 133 5
49 134 2
49 135 1
49 136 2
49 137 6
49 138 4
49 139 3
49 142 1
49 143 2
49 145 2
49 148 1
49 149 1
49 150 4
49 151 2
49 152 1
49 153 1
49 155 4
49 156 5
49 157 4
49 159 2
49 161 3
49 162 2
49 163 6
49 164 2
49 165 2
49 168 6
49 169 2
49 170 2
49 171 1
49 172 1
49 175 1
49 176 1
49 177 3
49 179 2
49 180 2
49 181 2
49 182 1
49 183 2
49 184 2
49 185 1
49 186 2
49 187 3
49 190 3
49 191 1
49 192 1
49 193 1
49 194 4
49 196 4
49 199 3
49 200 1
50 1 3
50 2 7
50 3 3
50 4 7
50 5 3
50 6 5
50 7 2
50 8 2
50 9 2
50 10 4
50 11 4
50 12 8
50 13 1
50 14 1
50 15 2
50 16 5
50 17 1
50 18 1
50 19 6
50 20 1
50 21 7
50 23 2
50 24 1
50 25 2
50 26 2
50 28 7
50 29 3
50 30 3
50 31 1
50 32 1
50 33 6
50 34 1
50 36 2
50 37 1
50 38 1
50 39 4
50 40 6
50 41 2
50 42 5
50 43 1
50 44 9
50 45 2
50 46 2
50 47 2
50 49 1
50 50 2
50 51 1
50 53 2
50 55 3
50 57 6
50 58 1
50 59 3
50 60 4
50 61 1
50 62 3
50 63 3
50 64 2
50 65 2
50 66 2
50 67 5
50 68 2
50 69 5
50 71 4
50 72 5
50 73 4
50 74 1
50 75 3
50 77 1
50 78 1
50 79 9
50 80 2
50 81 1
50 82 2
50 84 5
50 85 6
50 86 2
50 87 1
50 88 1
50 89 2
50 90 5
50 91 2
50 92 5
50 93 3
50 94 5
50 95 5
50 96 4
50 99 2
50 100 1
50 101 1
50 102 2
50 104 2
50 105 5
50 106 2
50 108 4
50 109 3
50 110 3
50 112 2
50 113 4
50 114 1
50 116 3
50 117 4
50 118 5
50 119 2
50 120 1
50 121 1
50 122 2
50 123 3
50 124 1
50 125 6
50 126 3
50 127 4
50 128 2
50 129 2
50 130 1
50 132 1
50 133 6
50 134 5
50 135 2
50 136 1
50 137 3
50 138 1
50 139 1
50 140 2
50 141 2
50 142 4
50 143 6
50 144 2
50 145 4
50 146 2
50 148 2
50 150 3
50 151 4
50 152 1
50 153 4
50 155 2
50 156 4
50 158 1
50 159 2
50 161 2
50 162 1
50 163 2
50 164 3
50 165 1
50 166 4
50 170 9
50 171 3
50 172 5
50 173 6
50 175 2
50 176 2
50 177 3
50 178 1
50 179 3
50 180 3
50 181 8
50 182 1
50 183 1
50 185 2
50 186 1
50 187 5
50 188 2
50 190 3
50 191 1
50 192 1
50 194 4
50 195 2
50 196 2
50 197 5
50 198 1
50 199 1
50 200 2
51 1 2
51 2 5
51 3 2
51 4 5
51 5 4
51 6 2
51 7 1
51 8 1
51 9 1
51 10 4
51 11 1
51 12 5
51 14 1
51 15 3
51 16 5
51 17 2
51 18 2
51 19 2
51 20 2
51 21 3
51 22 2
51 23 3
51 24 1
51 25 1
51 27 1
51 28 3
51 29 2
51 30 1
51 31 1
51 32 4
51 33 1
51 35 2
51 36 6
51 37 5
51 38 1
51 39 6
51 40 2
51 42 3
51 43 2
51 44 1
51 45 2
51 46 3
51 47 1
51 48 4
51 50 8
51 51 2
51 52 1
51 53 1
51 54 2
51 55 4
51 56 2
51 57 3
51 58 3
51 59 2
51 60 1
51 63 8
51 64 1
51 65 5
51 67 1
51 68 3
51 69 4
51 71 4
51 72 3
51 73 11
51 74 1
51 75 2
51 77 1
51 79 2
51 80 4
51 81 3
51 82 2
51 83 1
51 84 4
51 85 2
51 87 3
51 88 1
51 89 2
51 90 3
51 91 2
51 92 4
51 93 1
51 94 4
51 95 7
51 96 6
51 97 1
51 98 1
51 99 4
51 100 2
51 102 2
51 103 1
51 104 1
51 105 4
51 106 3
51 108 7
51 110 1
51 111 1
51 112 1
51 113 4
51 114 2
51 115 1
51 116 1
51 117 6
51 118 8
51 120 1
51 121 2
51 122 2
51 123 4
51 125 6
51 126 1
51 128 4
51 129 2
51 130 1
51 132 2
51 133 2
51 134 6
51 135 2
51 136 2
51 137 3
51 138 2
51 139 1
51 141 1
51 142 1
51 143 5
51 144 1
51 145 2
51 146 3
51 147 7
51 148 1
51 150 2
51 151 8
51 152 2
51 153 3
51 154 2
51 155 4
51 156 8
51 157 2
51 158 2
51 159 3
51 160 3
51 162 2
51 163 4
51 165 1
51 168 1
51 169 5
51 170 7
51 172 4
51 173 11
51 174 2
51 175 2
51 176 2
51 177 5
51 178 2
51 179 2
51 180 7
51 181 2
51 186 3
51 187 4
51 188 1
51 190 2
51 191 1
51 192 1
51 193 1
51 194 3
51 196 2
51 197 1
51 198 2
51 199 1
51 200 1
52 1 1
52 2 1
52 3 3
52 4 9
52 5 3
52 6 6
52 7 1
52 8 1
52 9 2
52 10 7
52 11 1
52 12 2
52 13 1
52 14 3
52 15 1
52 16 4
52 17 3
52 18 3
52 19 6
52 21 3
52 24 2
52 25 1
52 28 8
52 29 2
52 30 1
52 31 1
52 32 3
52 33 2
52 34 3
52 35 4
52 36 7
52 37 4
52 38 1
52 39 1
52 40 1
52 42 3
52 43 2
52 44 2
52 45 2
52 46 2
52 47 2
52 48 1
52 49 3
52 50 3
52 51 2
52 52 1
52 53 1
52 54 1
52 56 1
52 57 2
52 58 3
52 59 4
52 60 4
52 62 1
52 63 7
52 64 2
52 65 3
52 66 2
52 67 3
52 68 1
52 69 6
52 70 2
52 71 7
52 73 7
52 74 3
52 75 1
52 77 3
52 79 7
52 80 3
52 81 1
52 82 2
52 83 4
52 84 5
52 85 6
52 86 1
52 87 8
52 88 3
52 89 2
52 90 7
52 91 2
52 92 4
52 93 1
52 94 2
52 95 3
52 96 4
52 97 2
52 98 1
52 99 2
52 100 1
52 101 1
52 102 1
52 105 6
52 106 4
52 108 7
52 110 2
52 112 1
52 113 1
52 114 1
52 115 4
52 117 8
52 118 6
52 119 1
52 120 10
52 121 1
52 122 1
52 123 5
52 124 3
52 125 3
52 126 1
52 127 1
52 128 2
52 129 1
52 130 3
52 131 1
52 132 2
52 133 2
52 134 3
52 136 6
52 137 4
52 138 2
52 139 3
52 141 2
52 142 2
52 143 6
52 144 1
52 145 4
52 147 1
52 148 4
52 150 4
52 151 3
52 152 1
52 155 1
52 157 2
52 158 3
52 159 1
52 160 3
52 161 2
52 162 1
52 163 3
52 164 1
52 165 4
52 170 3
52 171 1
52 172 11
52 173 6
52 174 3
52 175 1
52 176 2
52 177 7
52 178 2
52 179 1
52 180 2
52 181 3
52 182 2
52 184 3
52 185 4
52 186 2
52 187 3
52 188 1
52 189 1
52 190 2
52 191 2
52 192 1
52 194 4
52 195 2
52 196 4
52 197 3
52 198 2
52 199 3
52 200 3
53 1 2
53 2 1
53 3 1
53 4 4
53 5 6
53 6 4
53 8 2
53 9 3
53 10 1
53 11 1
53 12 8
53 14 2
53 15 1
53 16 6
53 17 4
53 18 2
53 19 2
53 20 1
53 21 5
53 22 1
53 24 1
53 26 1
53 27 1
53 28 3
53 29 1
53 30 1
53 31 4
53 32 1
53 33 4
53 34 2
53 35 1
53 36 5
53 37 4
53 40 1
53 42 3
53 44 3
53 45 1
53 46 2
53 47 1
53 48 3
53 50 3
53 51 2
53 52 1
53 53 2
53 54 4
53 55 2
53 56 2
53 57 3
53 58 4
53 59 1
53 60 6
53 61 1
53 63 3
53 65 8
53 66 3
53 67 4
53 68 2
53 69 6
53 70 2
53 71 1
53 72 8
53 73 4
53 74 1
53 75 2
53 76 1
53 77 2
53 78 1
53 79 3
53 81 3
53 82 1
53 83 2
53 84 3
53 85 3
53 86 2
53 87 7
53 88 2
53 89 2
53 90 2
53 91 2
53 92 3
53 93 2
53 94 2
53 95 3
53 96 3
53 97 2
53 98 2
53 99 3
53 100 5
53 101 1
53 102 1
53 103 3
53 105 8
53 106 5
53 107 2
53 108 4
53 109 1
53 110 4
53 112 1
53 113 9
53 114 3
53 116 3
53 117 8
53 118 2
53 119 2
53 120 6
53 122 2
53 123 4
53 124 2
53 125 6
53 126 1
53 127 2
53 128 5
53 129 2
53 130 1
53 131 1
53 132 2
53 133 2
53 134 8
53 135 1
53 136 2
53 137 2
53 138 1
53 141 2
53 142 2
53 143 6
53 144 1
53 145 1
53 146 1
53 147 1
53 148 1
53 149 3
53 150 7
53 151 5
53 152 2
53 153 2
53 154 2
53 155 1
53 156 11
53 157 2
53 158 2
53 160 2
53 161 4
53 163 3
53 164 1
53 165 3
53 166 3
53 167 2
53 168 1
53 169 3
53 170 4
53 172 2
53 173 2
53 174 4
53 175 4
53 176 2
53 177 3
53 178 1
53 179 2
53 180 4
53 181 1
53 183 3
53 186 1
53 187 3
53 188 1
53 190 2
53 191 3
53 192 4
53 193 2
53 194 3
53 195 1
53 197 1
53 198 1
53 199 3
54 1 1
54 2 3
54 3 4
54 4 6
54 5 5
54 6 2
54 8 1
54 9 2
54 10 4
54 11 1
54 13 2
54 14 3
54 15 3
54 16 3
54 17 4
54 18 1
54 19 2
54 20 1
54 21 3
54 22 2
54 23 2
54 24 2
54 25 2
54 26 1
54 27 2
54 28 3
54 29 3
54 31 1
54 32 1
54 33 2
54 34 4
54 35 1
54 36 4
54 37 3
54 39 6
54 40 5
54 41 2
54 42 5
54 43 3
54 44 7
54 45 3
54 46 1
54 48 2
54 49 3
54 50 3
54 53 1
54 54 1
54 56 1
54 57 6
54 58 1
54 59 5
54 60 4
54 61 2
54 62 3
54 63 4
54 64 3
54 65 1
54 66 4
54 67 4
54 68 1
54 69 8
54 70 1
54 71 3
54 72 7
54 73 5
54 74 1
54 76 5
54 77 1
54 78 1
54 79 5
54 80 1
54 82 4
54 84 8
54 85 7
54 86 2
54 87 4
54 88 2
54 90 7
54 91 2
54 92 3
54 93 2
54 94 9
54 95 2
54 96 8
54 98 1
54 99 2
54 100 2
54 101 2
54 102 6
54 103 2
54 104 3
54 105 6
54 106 3
54 107 3
54 108 4
54 109 5
54 110 5
54 111 2
54 112 1
54 113 4
54 114 3
54 115 2
54 116 1
54 117 2
54 118 1
54 120 1
54 121 2
54 122 2
54 123 2
54 124 2
54 125 3
54 126 2
54 127 1
54 129 4
54 130 2
54 131 1
54 132 2
54 133 6
54 134 4
54 135 1
54 136 4
54 137 7
54 139 1
54 140 1
54 141 1
54 143 3
54 145 3
54 146 1
54 147 2
54 150 4
54 151 2
54 152 1
54 154 3
54 155 4
54 157 4
54 158 1
54 159 2
54 160 1
54 161 3
54 162 2
54 163 4
54 164 2
54 165 1
54 166 1
54 167 2
54 169 1
54 170 3
54 171 3
54 172 2
54 173 5
54 175 3
54 176 4
54 177 6
54 178 1
54 179 4
54 180 8
54 181 4
54 183 4
54 184 2
54 185 2
54 186 1
54 187 6
54 188 1
54 189 1
54 190 4
54 191 4
54 192 3
54 194 3
54 195 1
54 196 9
54 197 1
54 198 1
54 199 3
55 1 3
55 2 1
55 3 1
55 4 5
55 5 1
55 6 1
55 7 1
55 9 2
55 10 2
55 11 2
55 12 6
55 16 4
55 17 2
55 18 4
55 19 7
55 20 2
55 21 4
55 22 2
55 23 2
55 24 1
55 25 1
55 26 2
55 27 1
55 28 4
55 29 1
55 32 1
55 33 1
55 34 2
55 36 1
55 37 8
55 38 3
55 39 3
55 41 3
55 42 3
55 43 2
55 44 4
55 45 3
55 46 2
55 47 4
55 48 2
55 50 6
55 51 3
55 52 1
55 53 2
55 54 3
55 55 1
55 56 2
55 57 6
55 58 1
55 59 4
55 60 4
55 61 2
55 63 3
55 64 1
55 65 1
55 67 4
55 68 2
55 69 4
55 70 3
55 71 5
55 72 2
55 73 6
55 74 2
55 76 3
55 77 2
55 79 2
55 83 3
55 84 6
55 85 4
55 87 1
55 88 5
55 90 1
55 91 1
55 92 4
55 93 4
55 94 2
55 95 4
55 96 5
55 97 1
55 98 4
55 100 3
55 101 1
55 102 1
55 103 1
55 104 2
55 105 1
55 106 3
55 107 1
55 108 3
55 109 2
55 110 2
55 111 2
55 112 1
55 113 1
55 114 3
55 116 2
55 117 3
55 118 6
55 119 1
55 120 3
55 122 4
55 123 5
55 124 4
55 125 6
55 126 2
55 128 2
55 129 2
55 130 3
55 131 3
55 132 3
55 133 4
55 134 4
55 135 2
55 136 3
55 137 1
55 138 2
55 139 3
55 140 1
55 141 2
55 142 3
55 143 8
55 145 8
55 146 1
55 147 3
55 148 1
55 149 1
55 150 6
55 151 5
55 152 3
55 153 2
55 155 2
55 156 5
55 157 1
55 158 2
55 160 4
55 161 3
55 162 1
55 163 3
55 164 2
55 165 1
55 166 4
55 168 4
55 169 2
55 170 2
55 171 1
55 172 7
55 173 3
55 174 2
55 176 1
55 177 3
55 180 3
55 181 7
55 182 1
55 183 1
55 184 3
55 186 1
55 187 3
55 188 2
55 189 3
55 190 2
55 191 1
55 192 4
55 193 2
55 194 4
55 195 1
55 197 2
55 199 1
56 1 1
56 2 2
56 3 1
56 4 6
56 5 6
56 7 1
56 8 4
56 10 6
56 11 4
56 12 4
56 13 1
56 14 2
56 15 1
56 16 1
56 17 6
56 18 3
56 19 4
56 20 2
56 21 6
56 23 3
56 24 1
56 25 1
56 26 3
56 28 1
56 29 1
56 31 2
56 32 1
56 35 3
56 36 3
56 37 5
56 38 1
56 39 4
56 40 2
56 42 10
56 43 2
56 44 2
56 45 1
56 46 3
56 48 1
56 49 1
56 50 3
56 51 1
56 52 1
56 54 2
56 56 1
56 57 2
56 58 1
56 59 4
56 60 2
56 62 2
56 63 3
56 64 2
56 65 4
56 66 1
56 67 3
56 68 2
56 69 3
56 70 2
56 71 3
56 72 5
56 73 2
56 74 3
56 75 3
56 76 3
56 78 1
56 79 11
56 81 2
56 82 3
56 84 2
56 85 2
56 86 1
56 87 6
56 89 3
56 90 2
56 91 2
56 92 4
56 93 2
56 94 2
56 95 4
56 96 2
56 98 2
56 99 4
56 100 2
56 101 2
56 102 3
56 103 3
56 105 7
56 106 5
56 107 1
56 108 6
56 110 3
56 111 1
56 112 1
56 113 6
56 115 4
56 117 4
56 118 7
56 119 3
56 120 2
56 121 1
56 122 1
56 123 7
56 125 1
56 126 1
56 127 1
56 129 3
56 131 2
56 132 1
56 133 5
56 134 5
56 136 3
56 137 1
56 138 1
56 139 1
56 140 2
56 141 1
56 142 2
56 143 6
56 144 4
56 145 4
56 146 4
56 148 1
56 149 3
56 150 4
56 151 2
56 152 4
56 153 2
56 155 4
56 156 13
56 157 1
56 158 3
56 159 3
56 160 1
56 163 2
56 164 1
56 165 3
56 166 3
56 167 2
56 168 2
56 169 2
56 170 6
56 171 1
56 172 2
56 173 5
56 175 1
56 176 3
56 177 5
56 178 3
56 179 4
56 180 3
56 181 8
56 182 3
56 184 2
56 185 1
56 186 1
56 187 5
56 189 1
56 191 2
56 192 4
56 194 6
56 196 4
56 197 3
56 198 2
57 1 2
57 2 5
57 3 2
57 4 8
57 5 4
57 6 4
57 7 1
57 9 2
57 10 4
57 11 1
57 12 3
57 15 1
57 16 2
57 17 4
57 18 2
57 19 3
57 20 1
57 21 4
57 22 2
57 23 2
57 24 2
57 25 2
57 26 3
57 28 3
57 29 1
57 30 3
57 31 1
57 34 2
57 36 3
57 37 5
57 39 5
57 40 1
57 42 2
57 43 1
57 44 3
57 45 3
57 47 4
57 48 1
57 50 5
57 53 2
57 54 1
57 55 1
57 56 3
57 57 2
57 58 1
57 59 4
57 60 2
57 61 1
57 62 1
57 63 5
57 64 1
57 65 5
57 66 1
57 67 3
57 69 2
57 71 7
57 72 5
57 73 4
57 74 1
57 75 1
57 76 1
57 78 1
57 79 6
57 81 1
57 83 1
57 84 4
57 85 5
57 87 4
57 88 3
57 89 2
57 90 3
57 91 1
57 92 6
57 93 4
57 94 8
57 95 5
57 98 2
57 99 2
57 100 1
57 101 3
57 102 1
57 103 5
57 104 1
57 105 6
57 106 5
57 107 1
57 108 5
57 109 2
57 110 4
57 111 1
57 112 1
57 113 3
57 114 1
57 116 1
57 117 1
57 118 2
57 119 1
57 120 3
57 122 4
57 123 5
57 124 1
57 125 4
57 126 2
57 127 3
57 128 2
57 129 1
57 130 1
57 131 1
57 132 2
57 133 5
57 134 6
57 135 1
57 136 4
57 137 4
57 138 2
57 139 1
57 140 1
57 141 1
57 142 1
57 143 3
57 145 1
57 146 3
57 147 2
57 148 3
57 149 2
57 150 3
57 151 8
57 154 2
57 155 3
57 156 1
57 158 1
57 159 1
57 160 4
57 161 1
57 162 3
57 163 6
57 164 1
57 165 1
57 166 2
57 168 1
57 169 4
57 170 6
57 171 2
57 172 2
57 173 5
57 174 1
57 175 1
57 176 1
57 177 1
57 178 7
57 179 2
57 180 5
57 181 3
57 182 3
57 183 1
57 184 2
57 185 2
57 186 1
57 187 4
57 188 1
57 189 3
57 190 3
57 191 5
57 192 3
57 193 1
57 194 3
57 195 2
57 196 2
57 197 1
57 198 1
57 199 2
57 200 3
58 1 1
58 2 7
58 3 3
58 4 4
58 5 3
58 6 2
58 7 1
58 8 1
58 9 3
58 10 2
58 11 2
58 12 4
58 15 2
58 16 5
58 17 1
58 18 2
58 19 1
58 20 3
58 21 2
58 22 3
58 23 2
58 24 3
58 25 1
58 26 1
58 27 3
58 28 6
58 30 3
58 31 2
58 32 3
58 33 1
58 34 2
58 35 2
58 36 2
58 37 5
58 38 1
58 39 2
58 40 5
58 42 5
58 43 1
58 44 7
58 45 1
58 46 1
58 47 2
58 48 2
58 50 4
58 51 1
58 52 3
58 54 3
58 56 4
58 57 7
58 59 6
58 60 9
58 61 3
58 62 1
58 63 6
58 64 1
58 65 3
58 67 1
58 68 3
58 69 2
58 70 3
58 71 4
58 72 1
58 73 2
58 74 3
58 75 1
58 77 2
58 78 1
58 79 6
58 80 1
58 81 1
58 82 3
58 83 1
58 84 5
58 85 5
58 86 1
58 87 6
58 88 1
58 89 3
58 90 1
58 91 1
58 92 1
58 93 6
58 94 3
58 95 8
58 96 2
58 97 1
58 99 2
58 100 1
58 102 3
58 105 4
58 106 3
58 107 1
58 108 3
58 109 1
58 110 5
58 112 4
58 113 7
58 114 3
58 116 1
58 117 2
58 118 6
58 119 1
58 120 6
58 122 1
58 123 1
58 124 1
58 125 5
58 126 1
58 127 1
58 128 1
58 129 2
58 130 1
58 131 2
58 132 1
58 133 6
58 134 9
58 135 1
58 136 4
58 137 2
58 139 1
58 140 1
58 141 3
58 142 1
58 144 1
58 145 4
58 146 2
58 147 1
58 148 2
58 149 2
58 150 4
58 151 2
58 153 3
58 154 1
58 155 4
58 156 7
58 157 1
58 159 1
58 160 1
58 161 8
58 162 1
58 163 1
58 164 3
58 165 1
58 166 4
58 168 5
58 169 2
58 170 2
58 172 3
58 173 2
58 174 1
58 176 3
58 177 6
58 178 2
58 179 1
58 180 7
58 182 2
58 183 1
58 184 2
58 185 1
58 186 2
58 187 7
58 188 1
58 189 1
58 190 1
58 191 1
58 193 3
58 194 2
58 196 7
58 198 2
58 199 1
58 200 5
59 1 2
59 2 6
59 3 3
59 4 2
59 5 4
59 6 5
59 8 4
59 10 6
59 11 2
59 12 4
59 13 1
59 14 2
59 15 3
59 16 2
59 17 4
59 18 2
59 19 6
59 20 4
59 21 4
59 23 1
59 24 2
59 25 1
59 26 3
59 28 3
59 29 2
59 30 2
59 31 3
59 32 1
59 33 1
59 34 2
59 36 3
59 37 8
59 38 1
59 39 2
59 40 1
59 41 1
59 42 4
59 43 1
59 44 9
59 45 1
59 46 1
59 48 2
59 49 2
59 50 1
59 51 1
59 52 1
59 53 1
59 54 2
59 55 2
59 56 3
59 57 1
59 59 3
59 60 5
59 61 2
59 63 3
59 65 8
59 66 2
59 67 3
59 68 2
59 69 6
59 70 2
59 71 1
59 72 6
59 73 3
59 74 1
59 75 1
59 76 3
59 77 1
59 78 1
59 79 3
59 80 1
59 81 2
59 82 3
59 83 2
59 84 7
59 85 5
59 87 4
59 89 1
59 90 3
59 91 3
59 92 2
59 93 3
59 94 6
59 95 6
59 96 2
59 97 1
59 98 2
59 99 1
59 100 3
59 101 1
59 102 2
59 104 1
59 105 3
59 106 6
59 107 3
59 108 5
59 109 3
59 110 1
59 111 1
59 112 2
59 113 5
59 114 1
59 115 3
59 116 1
59 117 6
59 118 3
59 119 3
59 121 5
59 122 2
59 123 4
59 124 2
59 125 6
59 126 2
59 127 2
59 129 2
59 130 2
59 131 1
59 132 1
59 133 9
59 134 6
59 135 3
59 136 5
59 137 1
59 138 2
59 139 4
59 141 1
59 142 1
59 143 4
59 144 4
59 145 4
59 146 1
59 147 1
59 148 2
59 150 5
59 151 7
59 152 2
59 153 2
59 154 2
59 155 2
59 156 5
59 157 1
59 158 1
59 159 1
59 160 1
59 161 4
59 163 5
59 164 1
59 166 2
59 167 1
59 168 2
59 170 6
59 172 2
59 173 3
59 177 5
59 180 2
59 181 2
59 182 1
59 183 4
59 184 1
59 185 1
59 186 2
59 187 3
59 189 2
59 190 1
59 191 2
59 192 2
59 193 2
59 194 7
59 196 5
59 197 1
59 198 2
59 199 2
59 200 2
60 1 1
60 2 1
60 3 5
60 4 7
60 5 1
60 6 1
60 8 2
60 9 1
60 10 3
60 11 1
60 12 1
60 14 2
60 15 2
60 16 4
60 17 2
60 18 1
60 19 4
60 20 1
60 21 4
60 22 1
60 23 3
60 24 1
60 25 1
60 26 2
60 27 3
60 28 3
60 29 1
60 31 3
60 32 1
60 33 1
60 34 3
60 36 2
60 37 2
60 38 2
60 39 5
60 40 3
60 41 1
60 42 3
60 43 2
60 44 4
60 46 4
60 47 1
60 48 1
60 50 1
60 51 1
60 52 1
60 53 2
60 55 1
60 57 4
60 58 1
60 59 2
60 60 1
60 61 2
60 62 2
60 63 2
60 64 1
60 65 7
60 66 1
60 67 6
60 68 3
60 69 3
60 70 2
60 71 2
60 72 4
60 73 2
60 75 1
60 77 2
60 78 4
60 79 7
60 80 1
60 82 2
60 83 1
60 84 6
60 85 2
60 87 3
60 88 1
60 89 5
60 90 4
60 91 1
60 92 5
60 93 6
60 94 1
60 96 6
60 97 2
60 98 1
60 99 1
60 100 2
60 101 3
60 102 1
60 103 2
60 104 3
60 105 2
60 106 6
60 107 4
60 108 5
60 109 1
60 110 3
60 112 1
60 113 5
60 114 1
60 115 4
60 116 2
60 117 1
60 118 5
60 119 2
60 120 1
60 121 3
60 122 1
60 123 1
60 124 1
60 125 5
60 126 5
60 127 2
60 128 1
60 130 1
60 131 1
60 132 1
60 133 7
60 134 3
60 135 1
60 136 1
60 137 2
60 138 4
60 139 1
60 140 1
60 141 3
60 142 3
60 143 4
60 144 1
60 145 2
60 146 2
60 147 2
60 148 2
60 150 4
60 151 3
60 152 3
60 153 2
60 154 1
60 155 5
60 156 3
60 157 4
60 158 3
60 159 3
60 160 1
60 161 3
60 162 1
60 163 4
60 164 4
60 165 2
60 166 4
60 168 5
60 169 1
60 170 2
60 171 4
60 172 6
60 173 2
60 174 1
60 175 1
60 176 1
60 177 3
60 178 2
60 180 4
60 181 3
60 182 2
60 183 2
60 184 4
60 186 2
60 187 5
60 188 3
60 191 1
60 192 2
60 193 3
60 194 2
60 196 3
60 197 2
60 198 1
60 199 2
60 200 2
61 1 2
61 2 6
61 4 5
61 5 6
61 6 4
61 8 3
61 9 1
61 10 5
61 11 2
61 12 3
61 13 2
61 15 1
61 16 4
61 17 4
61 18 2
61 19 5
61 20 1
61 21 4
61 22 2
61 23 1
61 24 1
61 25 1
61 27 2
61 28 3
61 29 1
61 30 1
61 31 1
61 34 3
61 36 5
61 37 5
61 38 2
61 39 6
61 40 2
61 41 1
61 42 4
61 43 1
61 44 4
61 45 2
61 46 1
61 47 2
61 48 2
61 49 3
61 50 5
61 51 1
61 52 1
61 54 1
61 55 1
61 56 1
61 57 6
61 59 3
61 60 5
61 62 1
61 63 3
61 64 3
61 65 4
61 67 1
61 69 6
61 70 1
61 71 7
61 72 6
61 73 1
61 74 2
61 75 1
61 76 2
61 77 3
61 78 1
61 79 4
61 80 3
61 81 1
61 83 1
61 84 1
61 85 6
61 86 2
61 87 7
61 88 4
61 89 1
61 90 4
61 91 1
61 92 1
61 93 5
61 94 2
61 95 4
61 96 6
61 97 2
61 98 3
61 99 3
61 100 2
61 101 6
61 102 1
61 105 3
61 106 5
61 107 1
61 108 4
61 109 1
61 110 2
61 111 3
61 112 1
61 113 8
61 114 2
61 115 5
61 116 2
61 117 3
61 118 6
61 119 1
61 120 2
61 121 4
61 123 4
61 125 5
61 126 2
61 128 1
61 129 2
61 130 1
61 131 1
61 132 2
61 133 6
61 134 2
61 135 2
61 136 2
61 137 6
61 138 1
61 139 3
61 140 2
61 142 1
61 143 5
61 144 1
61 145 3
61 149 3
61 151 7
61 152 1
61 153 3
61 154 2
61 155 7
61 156 4
61 158 2
61 159 3
61 160 1
61 161 6
61 162 1
61 163 2
61 167 2
61 168 2
61 169 1
61 170 4
61 171 3
61 172 8
61 173 8
61 175 2
61 176 1
61 177 4
61 179 1
61 180 2
61 181 4
61 182 2
61 183 2
61 184 5
61 185 1
61 187 7
61 190 2
61 191 2
61 193 2
61 194 3
61 196 1
61 197 1
61 198 1
61 199 1
62 1 1
62 2 4
62 3 1
62 4 2
62 5 3
62 6 1
62 7 1
62 8 2
62 9 4
62 10 7
62 12 1
62 13 1
62 14 2
62 15 2
62 16 3
62 18 2
62 19 2
62 20 2
62 21 5
62 22 2
62 23 2
62 24 3
62 25 2
62 26 2
62 27 1
62 28 5
62 29 1
62 30 3
62 31 2
62 32 1
62 33 1
62 35 1
62 36 5
62 37 3
62 38 3
62 39 3
62 40 1
62 42 9
62 43 2
62 44 2
62 45 1
62 46 2
62 47 1
62 48 2
62 49 1
62 50 4
62 51 2
62 52 1
62 54 2
62 55 1
62 57 5
62 58 2
62 59 6
62 60 2
62 61 3
62 63 9
62 64 2
62 65 4
62 66 2
62 67 6
62 68 2
62 69 5
62 70 6
62 71 4
62 72 4
62 73 9
62 75 3
62 76 6
62 77 2
62 78 1
62 79 3
62 80 1
62 81 1
62 82 2
62 83 1
62 84 1
62 85 6
62 87 5
62 88 5
62 89 6
62 90 6
62 91 1
62 93 4
62 94 4
62 95 2
62 96 2
62 98 3
62 99 1
62 100 2
62 103 2
62 104 2
62 105 3
62 106 7
62 108 3
62 109 2
62 110 1
62 111 3
62 112 2
62 113 6
62 114 1
62 115 1
62 116 2
62 117 3
62 118 8
62 119 1
62 120 5
62 123 7
62 124 1
62 125 4
62 126 2
62 127 3
62 128 1
62 129 2
62 131 1
62 133 3
62 134 2
62 135 1
62 136 7
62 137 4
62 139 3
62 140 2
62 141 1
62 142 2
62 143 4
62 144 4
62 145 1
62 146 2
62 147 3
62 148 1
62 149 2
62 150 6
62 151 6
62 152 1
62 153 2
62 154 1
62 155 5
62 156 3
62 157 2
62 159 1
62 160 1
62 161 5
62 162 2
62 163 10
62 164 3
62 165 3
62 167 1
62 170 7
62 171 1
62 172 2
62 173 5
62 174 1
62 176 2
62 177 3
62 178 3
62 179 4
62 180 2
62 181 3
62 182 2
62 183 1
62 185 2
62 186 2
62 187 9
62 189 2
62 190 1
62 191 1
62 193 2
62 194 6
62 195 1
62 196 6
62 197 2
62 198 3
62 199 2
63 1 3
63 2 3
63 3 2
63 4 4
63 5 2
63 6 6
63 7 1
63 8 1
63 9 2
63 10 6
63 11 1
63 12 4
63 13 2
63 14 1
63 15 3
63 16 4
63 17 6
63 18 1
63 19 5
63 21 11
63 22 1
63 23 1
63 24 5
63 25 2
63 27 1
63 28 1
63 29 1
63 30 2
63 31 1
63 32 1
63 34 3
63 35 1
63 36 6
63 37 6
63 38 2
63 39 2
63 40 1
63 41 1
63 42 3
63 44 4
63 45 2
63 46 2
63 47 6
63 48 1
63 50 2
63 53 1
63 54 2
63 55 1
63 56 2
63 57 3
63 58 1
63 59 4
63 60 1
63 62 6
63 63 7
63 64 2
63 65 2
63 66 1
63 67 3
63 68 2
63 69 2
63 70 1
63 71 5
63 72 3
63 73 5
63 74 2
63 75 2
63 77 1
63 78 2
63 79 4
63 81 3
63 82 1
63 83 1
63 84 2
63 85 4
63 87 3
63 88 3
63 89 2
63 90 4
63 91 1
63 92 3
63 93 3
63 94 5
63 95 9
63 96 2
63 97 2
63 98 2
63 99 1
63 101 4
63 103 1
63 104 2
63 105 4
63 106 6
63 107 1
63 108 2
63 109 2
63 110 1
63 111 2
63 112 1
63 113 7
63 114 3
63 115 1
63 116 1
63 117 3
63 118 1
63 119 1
63 120 2
63 121 2
63 122 1
63 123 5
63 124 1
63 125 2
63 127 1
63 128 3
63 129 1
63 130 3
63 131 1
63 133 5
63 134 3
63 135 3
63 136 3
63 137 2
63 139 2
63 140 1
63 141 1
63 143 3
63 144 1
63 145 6
63 147 1
63 148 1
63 149 3
63 150 3
63 151 7
63 152 2
63 154 1
63 155 7
63 156 4
63 157 1
63 158 1
63 159 1
63 160 3
63 161 6
63 164 3
63 165 1
63 166 1
63 167 1
63 170 3
63 171 2
63 172 2
63 173 4
63 174 3
63 175 1
63 176 1
63 177 3
63 179 2
63 180 1
63 181 6
63 182 1
63 183 3
63 184 3
63 185 4
63 186 5
63 187 8
63 188 3
63 191 5
63 193 5
63 194 5
63 195 5
63 196 2
63 197 1
63 198 1
63 199 2
63 200 3
64 1 1
64 2 6
64 3 1
64 4 1
64 5 6
64 6 3
64 7 3
64 8 1
64 9 2
64 10 4
64 11 2
64 12 4
64 13 2
64 16 7
64 17 3
64 18 1
64 19 1
64 21 3
64 22 2
64 23 2
64 25 1
64 26 5
64 27 1
64 28 4
64 29 2
64 30 2
64 31 1
64 32 1
64 33 3
64 35 4
64 36 3
64 37 2
64 38 2
64 39 6
64 41 2
64 42 2
64 44 2
64 45 2
64 47 1
64 48 2
64 49 3
64 50 6
64 51 2
64 53 3
64 54 2
64 55 3
64 57 5
64 59 3
64 60 2
64 63 6
64 64 2
64 65 8
64 66 3
64 69 2
64 70 2
64 71 5
64 72 4
64 73 5
64 74 2
64 75 2
64 78 2
64 79 2
64 80 1
64 81 2
64 82 2
64 83 4
64 84 8
64 85 5
64 87 3
64 88 3
64 89 1
64 90 6
64 91 2
64 92 5
64 93 4
64 94 6
64 95 2
64 96 3
64 97 4
64 98 1
64 99 1
64 100 4
64 102 1
64 105 6
64 106 9
64 107 2
64 108 2
64 109 2
64 110 4
64 111 3
64 113 3
64 114 8
64 115 2
64 116 2
64 117 10
64 118 4
64 119 2
64 120 3
64 122 3
64 123 7
64 124 4
64 125 2
64 127 1
64 129 1
64 130 3
64 131 2
64 132 2
64 133 3
64 134 1
64 135 1
64 136 2
64 137 2
64 138 3
64 139 2
64 140 1
64 141 3
64 142 5
64 143 1
64 145 4
64 146 2
64 147 3
64 148 1
64 149 2
64 150 2
64 151 2
64 152 1
64 153 1
64 154 1
64 155 3
64 156 9
64 158 2
64 159 3
64 161 8
64 162 1
64 163 7
64 164 1
64 165 1
64 169 1
64 170 3
64 171 4
64 173 2
64 174 2
64 175 1
64 176 1
64 177 3
64 178 1
64 179 3
64 180 4
64 181 4
64 183 3
64 184 2
64 185 2
64 187 2
64 188 1
64 190 3
64 191 2
64 192 3
64 193 2
64 194 9
64 196 3
64 197 3
64 199 2
65 1 9
65 2 1
65 3 5
65 4 2
65 6 2
65 7 1
65 8 4
65 9 4
65 11 3
65 12 1
65 13 4
65 14 2
65 15 1
65 16 3
65 17 1
65 18 4
65 19 7
65 20 1
65 21 1
65 23 1
65 24 2
65 25 9
65 26 2
65 27 1
65 28 1
65 29 4
65 30 3
65 31 2
65 32 3
65 33 2
65 34 1
65 35 5
65 36 1
65 37 3
65 38 3
65 39 3
65 40 2
65 41 3
65 42 1
65 43 5
65 44 2
65 45 4
65 46 1
65 48 3
65 49 3
65 50 2
65 51 4
65 52 1
65 53 2
65 54 2
65 55 9
65 56 1
65 58 1
65 59 3
65 60 3
65 61 5
65 62 4
65 63 1
65 64 1
65 66 1
65 67 5
65 68 5
65 69 5
65 70 1
65 72 4
65 73 4
65 74 1
65 75 2
65 76 2
65 77 3
65 78 2
65 80 5
65 81 7
65 82 3
65 83 1
65 84 3
65 85 3
65 87 4
65 88 2
65 90 4
65 91 1
65 92 3
65 93 4
65 95 2
65 96 1
65 97 4
65 98 4
65 99 3
65 100 4
65 101 3
65 102 3
65 103 9
65 105 3
65 106 1
65 107 2
65 108 3
65 109 2
65 110 2
65 111 2
65 112 1
65 114 3
65 116 2
65 117 2
65 118 1
65 119 1
65 120 5
65 121 2
65 123 3
65 124 1
65 125 3
65 126 1
65 127 2
65 128 6
65 129 2
65 130 3
65 132 1
65 135 3
65 136 7
65 137 5
65 138 2
65 139 4
65 140 7
65 141 1
65 142 2
65 144 3
65 145 6
65 146 4
65 147 4
65 148 1
65 149 5
65 151 3
65 152 1
65 153 2
65 154 4
65 155 2
65 156 2
65 157 4
65 158 1
65 159 3
65 160 3
65 161 2
65 162 1
65 163 2
65 164 1
65 165 1
65 167 4
65 168 2
65 169 2
65 170 4
65 171 4
65 172 1
65 173 3
65 174 2
65 175 4
65 176 3
65 177 2
65 178 2
65 180 2
65 181 1
65 182 1
65 183 2
65 185 3
65 186 2
65 187 2
65 188 1
65 189 3
65 190 2
65 191 4
65 192 4
65 193 3
65 194 3
65 195 2
65 196 2
65 197 2
65 199 5
65 200 2
66 2 3
66 3 2
66 5 5
66 6 2
66 7 1
66 8 3
66 9 6
66 10 4
66 11 5
66 12 3
66 13 1
66 14 1
66 15 1
66 16 1
66 17 3
66 18 5
66 19 6
66 20 3
66 21 2
66 22 3
66 23 1
66 24 4
66 25 3
66 28 4
66 29 1
66 30 1
66 31 1
66 32 1
66 33 1
66 34 4
66 35 1
66 37 2
66 38 7
66 39 1
66 40 6
66 41 2
66 42 3
66 43 4
66 44 4
66 45 1
66 46 2
66 47 3
66 50 3
66 51 4
66 52 2
66 54 4
66 55 3
66 56 5
66 57 3
66 58 4
66 59 3
66 60 1
66 61 6
66 62 4
66 63 1
66 64 3
66 65 1
66 66 4
66 67 4
66 68 1
66 70 1
66 71 1
66 72 1
66 73 5
66 74 5
66 75 3
66 76 2
66 77 3
66 78 4
66 79 3
66 80 1
66 81 1
66 82 2
66 83 2
66 84 5
66 85 3
66 86 4
66 87 5
66 88 3
66 89 4
66 90 2
66 91 3
66 92 4
66 93 5
66 95 2
66 96 1
66 97 4
66 98 3
66 99 10
66 100 1
66 102 4
66 103 4
66 104 2
66 105 2
66 106 2
66 107 2
66 108 2
66 109 3
66 110 2
66 111 3
66 112 5
66 113 2
66 114 2
66 115 4
66 116 3
66 117 1
66 118 2
66 119 3
66 120 3
66 121 7
66 122 3
66 123 4
66 124 3
66 125 4
66 126 3
66 127 4
66 128 7
66 129 7
66 130 1
66 131 3
66 132 4
66 133 4
66 134 1
66 135 2
66 137 5
66 138 3
66 139 1
66 141 2
66 142 1
66 143 2
66 145 3
66 146 3
66 147 1
66 148 2
66 149 5
66 150 5
66 151 4
66 152 9
66 153 2
66 154 1
66 155 2
66 156 4
66 157 5
66 159 3
66 160 3
66 161 1
66 162 1
66 163 1
66 164 2
66 165 5
66 166 2
66 167 2
66 168 3
66 169 6
66 170 4
66 171 4
66 172 3
66 173 2
66 174 2
66 175 1
66 176 1
66 177 3
66 178 4
66 179 7
66 180 1
66 181 3
66 182 2
66 183 3
66 184 2
66 185 1
66 187 5
66 188 4
66 189 4
66 190 1
66 191 6
66 192 3
66 193 3
66 195 2
66 196 3
66 199 1
66 200 2
67 1 1
67 2 5
67 3 4
67 4 2
67 5 1
67 6 4
67 7 2
67 8 2
67 9 5
67 10 4
67 11 2
67 12 4
67 14 4
67 15 4
67 16 2
67 18 1
67 19 2
67 20 3
67 21 1
67 22 1
67 23 4
67 24 2
67 25 5
67 26 3
67 27 2
67 28 1
67 29 6
67 30 2
67 31 3
67 32 6
67 33 1
67 34 2
67 35 3
67 36 2
67 37 4
67 38 1
67 39 3
67 40 1
67 41 3
67 42 2
67 43 1
67 44 1
67 45 3
67 46 1
67 47 2
67 48 2
67 49 1
67 50 3
67 51 4
67 52 1
67 53 3
67 54 5
67 55 3
67 56 2
67 57 2
67 58 6
67 59 2
67 60 2
67 61 2
67 62 1
67 63 2
67 64 3
67 66 1
67 67 1
67 68 1
67 69 3
67 70 2
67 71 7
67 74 2
67 75 1
67 76 2
67 77 3
67 78 3
67 80 1
67 81 5
67 82 2
67 83 2
67 85 4
67 86 2
67 88 4
67 89 5
67 90 5
67 91 3
67 92 1
67 93 2
67 94 3
67 95 4
67 96 2
67 97 5
67 98 3
67 99 1
67 100 2
67 101 3
67 103 1
67 104 2
67 105 3
67 106 1
67 107 4
67 108 2
67 109 1
67 110 2
67 111 1
67 113 4
67 114 3
67 115 1
67 116 2
67 117 9
67 118 2
67 119 3
67 120 1
67 122 4
67 123 5
67 124 4
67 125 7
67 126 4
67 127 2
67 128 3
67 129 2
67 130 2
67 132 1
67 133 1
67 134 2
67 135 3
67 136 1
67 137 2
67 138 6
67 139 4
67 140 3
67 141 1
67 142 7
67 144 1
67 145 2
67 146 2
67 147 1
67 148 3
67 149 3
67 150 2
67 151 5
67 153 1
67 154 4
67 155 4
67 156 3
67 157 3
67 158 1
67 159 2
67 160 2
67 161 2
67 162 2
67 164 1
67 165 2
67 166 5
67 167 7
67 168 2
67 169 2
67 170 2
67 171 1
67 172 1
67 174 4
67 175 4
67 176 2
67 177 8
67 178 2
67 179 7
67 181 2
67 182 1
67 183 6
67 184 4
67 185 2
67 186 3
67 187 1
67 188 1
67 189 3
67 190 5
67 191 3
67 192 5
67 194 2
67 195 1
67 196 1
67 197 1
67 198 2
67 199 2
67 200 3
68 1 2
68 2 7
68 3 1
68 4 8
68 5 9
68 6 16
68 7 2
68 8 3
68 9 3
68 10 10
68 11 6
68 12 8
68 13 2
68 14 2
68 15 2
68 16 16
68 17 1
68 19 13
68 20 5
68 21 9
68 22 3
68 23 3
68 24 2
68 25 2
68 26 2
68 27 2
68 28 8
68 29 6
68 30 6
68 31 4
68 32 1
68 33 4
68 36 9
68 37 5
68 38 4
68 39 15
68 40 6
68 41 2
68 42 5
68 43 2
68 44 12
68 45 2
68 46 6
68 47 3
68 48 4
68 49 3
68 50 14
68 51 8
68 52 4
68 53 4
68 54 3
68 55 1
68 56 1
68 57 7
68 58 3
68 59 8
68 60 7
68 61 2
68 62 2
68 63 11
68 64 2
68 65 12
68 66 2
68 67 7
68 68 4
68 69 10
68 70 4
68 71 11
68 72 7
68 73 9
68 74 7
68 75 1
68 76 3
68 77 4
68 78 3
68 79 10
68 80 4
68 82 1
68 83 4
68 84 9
68 85 8
68 86 1
68 87 10
68 88 5
68 90 7
68 91 2
68 92 5
68 93 9
68 94 14
68 95 8
68 96 4
68 97 1
68 98 4
68 99 5
68 100 4
68 101 1
68 102 4
68 103 5
68 104 3
68 105 6
68 106 7
68 107 4
68 108 8
68 109 1
68 110 4
68 111 3
68 112 4
68 113 7
68 114 2
68 115 1
68 116 3
68 117 20
68 118 5
68 119 1
68 120 8
68 121 6
68 122 1
68 123 5
68 124 2
68 125 11
68 126 3
68 127 4
68 128 3
68 129 6
68 130 5
68 131 5
68 132 6
68 133 8
68 134 7
68 136 12
68 137 3
68 138 2
68 140 4
68 141 5
68 142 1
68 143 8
68 144 4
68 145 7
68 146 5
68 147 1
68 149 1
68 150 6
68 151 6
68 152 2
68 153 1
68 154 2
68 155 7
68 156 13
68 157 7
68 158 4
68 159 1
68 160 5
68 161 7
68 162 7
68 163 3
68 164 3
68 165 5
68 167 2
68 168 3
68 169 2
68 170 9
68 171 1
68 172 9
68 173 12
68 174 5
68 175 7
68 176 5
68 177 9
68 178 4
68 179 3
68 180 5
68 181 8
68 182 2
68 183 5
68 184 6
68 185 3
68 186 2
68 187 13
68 188 3
68 189 5
68 190 2
68 191 6
68 192 9
68 193 2
68 194 9
68 195 5
68 196 7
68 197 3
68 198 4
68 199 1
68 200 1
69 1 2
69 2 10
69 3 4
69 4 12
69 5 7
69 6 5
69 7 4
69 8 2
69 9 2
69 10 15
69 11 5
69 12 8
69 13 2
69 14 7
69 15 2
69 16 9
69 17 14
69 18 4
69 19 12
69 21 5
69 22 6
69 23 2
69 24 3
69 25 6
69 27 4
69 28 5
69 29 3
69 30 4
69 31 2
69 32 1
69 33 2
69 34 3
69 36 4
69 37 11
69 38 4
69 39 6
69 40 3
69 41 2
69 42 12
69 44 11
69 45 4
69 47 4
69 48 4
69 49 4
69 50 8
69 51 3
69 52 1
69 53 3
69 54 1
69 55 4
69 56 5
69 57 11
69 58 5
69 59 7
69 60 5
69 61 5
69 62 1
69 63 12
69 64 3
69 65 10
69 66 3
69 67 13
69 68 7
69 69 8
69 70 4
69 71 14
69 72 13
69 73 10
69 74 2
69 75 5
69 76 4
69 77 3
69 78 4
69 79 9
69 80 2
69 81 3
69 82 4
69 83 3
69 84 10
69 85 7
69 86 4
69 87 9
69 88 4
69 89 4
69 90 4
69 91 2
69 92 16
69 93 2
69 94 8
69 95 5
69 96 12
69 97 1
69 98 2
69 100 7
69 101 3
69 103 3
69 104 5
69 105 10
69 106 12
69 107 3
69 108 7
69 109 3
69 111 2
69 112 4
69 113 12
69 114 3
69 115 3
69 116 6
69 117 6
69 118 15
69 119 4
69 120 7
69 121 4
69 122 4
69 123 10
69 124 2
69 125 8
69 126 2
69 127 1
69 128 4
69 129 1
69 130 6
69 131 5
69 132 3
69 133 8
69 134 8
69 135 5
69 136 10
69 137 7
69 138 3
69 139 5
69 140 3
69 141 3
69 142 6
69 143 6
69 144 2
69 145 7
69 146 1
69 148 4
69 149 2
69 150 10
69 151 6
69 152 2
69 153 5
69 154 1
69 155 3
69 156 9
69 157 9
69 158 1
69 159 1
69 160 2
69 161 11
69 162 3
69 163 10
69 164 3
69 165 1
69 166 3
69 167 2
69 168 1
69 169 3
69 170 10
69 171 3
69 172 8
69 173 17
69 174 4
69 175 2
69 176 6
69 177 8
69 178 5
69 179 2
69 180 7
69 181 8
69 182 3
69 183 2
69 185 3
69 186 5
69 187 9
69 188 5
69 189 6
69 190 5
69 191 4
69 192 2
69 193 4
69 194 8
69 195 3
69 196 8
69 197 1
69 198 3
69 199 5
69 200 5
70 1 1
70 2 4
70 3 1
70 4 6
70 5 5
70 6 5
70 10 13
70 12 5
70 13 1
70 16 5
70 17 6
70 18 1
70 19 5
70 21 8
70 24 1
70 27 1
70 28 7
70 29 2
70 34 1
70 36 5
70 37 8
70 38 1
70 39 5
70 40 1
70 42 9
70 43 1
70 44 3
70 46 1
70 47 2
70 50 6
70 51 2
70 52 1
70 53 1
70 55 1
70 56 1
70 57 9
70 58 1
70 59 13
70 60 7
70 61 3
70 63 9
70 64 1
70 65 5
70 67 6
70 69 6
70 71 4
70 72 3
70 73 11
70 79 11
70 84 3
70 85 8
70 86 3
70 87 5
70 90 6
70 92 2
70 93 8
70 94 6
70 95 8
70 96 6
70 98 1
70 100 1
70 103 2
70 105 11
70 106 5
70 108 11
70 109 1
70 110 1
70 112 2
70 113 3
70 115 1
70 117 2
70 118 6
70 119 1
70 120 13
70 122 1
70 123 7
70 125 3
70 126 2
70 127 1
70 132 1
70 133 9
70 134 13
70 136 8
70 137 5
70 141 1
70 143 7
70 144 3
70 145 10
70 147 1
70 148 1
70 150 4
70 151 3
70 152 1
70 155 7
70 156 9
70 159 1
70 161 4
70 162 1
70 163 17
70 166 2
70 169 1
70 170 5
70 172 6
70 173 5
70 177 5
70 179 1
70 180 6
70 181 11
70 184 1
70 186 3
70 187 3
70 192 1
70 194 11
70 196 7
71 2 6
71 4 4
71 5 5
71 6 9
71 9 2
71 10 9
71 11 1
71 12 4
71 15 1
71 16 6
71 17 4
71 19 4
71 20 1
71 21 6
71 25 3
71 27 1
71 28 6
71 30 1
71 35 1
71 36 5
71 37 10
71 38 2
71 39 3
71 42 6
71 44 5
71 45 1
71 48 1
71 49 2
71 50 8
71 51 1
71 52 2
71 57 8
71 58 2
71 59 7
71 60 7
71 63 5
71 65 8
71 67 10
71 68 1
71 69 8
71 71 8
71 72 7
71 73 7
71 74 1
71 75 2
71 78 1
71 79 16
71 81 1
71 82 1
71 84 5
71 85 5
71 86 1
71 87 7
71 89 1
71 90 8
71 92 11
71 93 7
71 94 5
71 95 8
71 96 8
71 97 1
71 98 2
71 99 2
71 101 2
71 102 1
71 103 1
71 104 3
71 105 5
71 106 4
71 108 5
71 110 1
71 113 12
71 117 4
71 118 6
71 120 4
71 121 5
71 123 8
71 124 1
71 125 7
71 126 1
71 127 2
71 130 1
71 132 2
71 133 8
71 134 2
71 135 1
71 136 7
71 137 9
71 143 7
71 145 3
71 147 1
71 149 1
71 150 7
71 151 9
71 152 1
71 155 7
71 156 5
71 157 1
71 158 2
71 161 5
71 163 13
71 165 3
71 166 1
71 168 1
71 170 3
71 172 6
71 173 4
71 174 2
71 176 1
71 177 3
71 180 8
71 181 9
71 184 1
71 186 2
71 187 5
71 194 5
71 195 2
71 196 7
71 198 1
72 1 1
72 2 7
72 3 1
72 4 4
72 5 3
72 6 2
72 10 7
72 12 7
72 13 2
72 14 1
72 16 6
72 17 3
72 18 1
72 19 4
72 21 9
72 25 2
72 28 8
72 30 1
72 34 1
72 35 1
72 36 5
72 37 8
72 38 1
72 39 6
72 40 2
72 41 1
72 42 7
72 43 1
72 44 5
72 46 1
72 47 3
72 49 2
72 50 4
72 51 2
72 55 1
72 56 1
72 57 6
72 58 1
72 59 2
72 60 9
72 61 1
72 62 1
72 63 2
72 65 3
72 67 5
72 68 1
72 69 5
72 71 3
72 72 8
72 73 6
72 74 1
72 77 1
72 78 1
72 79 4
72 84 7
72 85 3
72 86 1
72 87 7
72 89 2
72 90 1
72 91 1
72 92 3
72 93 9
72 94 8
72 95 3
72 96 1
72 97 2
72 98 1
72 99 2
72 102 2
72 103 1
72 105 6
72 106 8
72 108 5
72 113 5
72 114 1
72 117 7
72 118 9
72 120 8
72 121 1
72 123 12
72 124 1
72 125 4
72 126 1
72 130 1
72 133 5
72 134 5
72 136 7
72 137 8
72 139 1
72 141 1
72 142 1
72 143 5
72 144 1
72 145 2
72 146 1
72 147 1
72 148 1
72 150 9
72 151 4
72 155 8
72 156 9
72 157 1
72 158 1
72 161 8
72 163 5
72 165 1
72 169 1
72 170 6
72 171 1
72 172 6
72 173 6
72 176 1
72 177 5
72 180 4
72 181 3
72 182 1
72 184 3
72 187 5
72 190 3
72 191 2
72 192 1
72 193 1
72 194 3
72 196 6
72 197 3
72 200 1
73 2 1
73 3 5
73 5 1
73 7 1
73 14 1
73 17 1
73 22 1
73 24 4
73 25 1
73 27 1
73 28 2
73 29 1
73 30 2
73 33 7
73 34 1
73 38 7
73 39 1
73 42 2
73 43 1
73 44 1
73 52 9
73 53 2
73 61 2
73 62 7
73 64 1
73 66 12
73 68 5
73 70 2
73 74 7
73 76 5
73 79 1
73 80 2
73 81 5
73 82 8
73 83 1
73 85 2
73 90 3
73 92 3
73 97 1
73 103 2
73 104 1
73 109 1
73 110 7
73 112 1
73 113 1
73 115 1
73 116 2
73 118 1
73 121 11
73 123 1
73 124 2
73 125 1
73 126 1
73 128 1
73 131 1
73 134 1
73 135 1
73 138 1
73 139 1
73 140 11
73 141 7
73 142 4
73 143 2
73 145 2
73 146 1
73 147 1
73 148 1
73 149 2
73 151 1
73 154 1
73 155 1
73 156 1
73 161 1
73 162 1
73 168 2
73 171 1
73 174 7
73 178 6
73 180 2
73 182 1
73 183 1
73 185 1
73 188 1
73 189 1
73 192 1
73 193 1
73 196 2
73 197 1
73 199 3
73 200 1
74 2 1
74 3 5
74 6 1
74 9 2
74 12 1
74 15 1
74 16 2
74 17 1
74 18 1
74 19 2
74 23 1
74 24 8
74 26 1
74 30 3
74 31 1
74 33 4
74 35 2
74 38 6
74 41 2
74 42 1
74 43 1
74 45 1
74 47 3
74 48 2
74 49 1
74 51 3
74 52 4
74 53 1
74 57 2
74 60 1
74 61 2
74 62 5
74 63 1
74 64 1
74 65 1
74 66 6
74 67 1
74 68 6
74 70 1
74 71 1
74 74 11
74 75 1
74 76 3
74 77 1
74 79 2
74 80 1
74 81 10
74 82 7
74 83 3
74 87 2
74 91 1
74 92 1
74 97 2
74 98 1
74 102 1
74 106 1
74 110 2
74 113 1
74 114 1
74 116 2
74 118 2
74 120 1
74 121 3
74 123 1
74 124 2
74 125 2
74 126 1
74 136 2
74 138 1
74 139 2
74 140 3
74 141 7
74 142 14
74 147 1
74 149 2
74 152 1
74 153 1
74 154 1
74 158 1
74 160 1
74 162 3
74 163 1
74 165 1
74 166 1
74 174 4
74 175 1
74 177 3
74 178 6
74 179 1
74 183 1
74 184 1
74 186 4
74 192 1
74 195 1
74 196 1
74 198 1
74 200 3
75 1 1
75 2 7
75 4 8
75 5 4
75 6 5
75 7 1
75 8 1
75 10 3
75 11 1
75 12 4
75 13 1
75 14 1
75 16 7
75 17 6
75 18 1
75 19 10
75 21 13
75 23 1
75 27 1
75 28 6
75 33 1
75 36 7
75 37 3
75 39 7
75 42 6
75 44 11
75 45 1
75 50 9
75 52 3
75 54 1
75 57 11
75 59 7
75 60 7
75 62 2
75 63 5
75 65 6
75 66 1
75 67 9
75 69 5
75 70 2
75 71 9
75 72 9
75 73 7
75 75 1
75 76 1
75 77 1
75 78 1
75 79 4
75 81 1
75 82 2
75 83 2
75 84 11
75 85 9
75 87 7
75 88 1
75 90 2
75 91 1
75 92 5
75 93 4
75 94 6
75 95 4
75 96 2
75 97 1
75 98 1
75 101 1
75 104 1
75 105 12
75 106 7
75 108 8
75 112 1
75 113 4
75 115 1
75 117 9
75 118 8
75 120 2
75 122 2
75 123 7
75 124 1
75 125 4
75 130 2
75 133 5
75 134 14
75 136 4
75 137 7
75 143 6
75 144 1
75 145 2
75 146 1
75 147 1
75 150 10
75 151 6
75 154 1
75 155 2
75 156 4
75 158 2
75 159 1
75 161 3
75 163 5
75 164 1
75 165 2
75 170 5
75 172 9
75 173 3
75 174 1
75 176 1
75 177 6
75 178 1
75 179 1
75 180 7
75 181 12
75 182 1
75 185 1
75 187 4
75 188 1
75 191 1
75 193 3
75 194 6
75 196 7
76 1 1
76 3 1
76 4 1
76 5 1
76 7 3
76 8 5
76 9 4
76 11 3
76 13 1
76 15 12
76 18 5
76 20 1
76 21 1
76 22 6
76 23 4
76 25 1
76 27 1
76 31 1
76 32 5
76 33 1
76 34 1
76 35 6
76 45 3
76 46 1
76 47 1
76 53 1
76 55 1
76 58 5
76 64 1
76 72 1
76 74 2
76 75 2
76 78 7
76 84 1
76 85 1
76 86 1
76 88 3
76 89 2
76 90 1
76 91 1
76 92 2
76 93 1
76 98 1
76 99 1
76 100 1
76 101 1
76 104 3
76 107 8
76 109 5
76 110 2
76 111 3
76 113 1
76 115 2
76 116 6
76 122 11
76 126 3
76 128 2
76 129 1
76 130 8
76 131 1
76 132 1
76 133 1
76 134 2
76 135 5
76 138 4
76 139 1
76 141 1
76 143 2
76 144 5
76 146 1
76 147 5
76 148 8
76 150 1
76 153 5
76 155 2
76 158 6
76 162 1
76 164 2
76 165 10
76 166 1
76 167 4
76 168 1
76 170 1
76 171 9
76 172 1
76 174 2
76 175 1
76 182 13
76 184 5
76 186 5
76 189 2
76 190 1
76 193 1
76 195 8
76 196 2
76 198 4
76 200 1
77 2 2
77 4 9
77 5 9
77 6 2
77 8 1
77 9 4
77 10 3
77 12 10
77 16 6
77 17 5
77 19 9
77 21 6
77 23 1
77 25 1
77 26 1
77 28 6
77 31 1
77 35 2
77 36 7
77 37 3
77 38 1
77 39 8
77 40 1
77 41 1
77 42 2
77 44 8
77 46 1
77 48 1
77 50 5
77 51 1
77 53 1
77 54 1
77 56 1
77 57 9
77 58 1
77 59 5
77 60 6
77 62 1
77 63 5
77 64 2
77 65 10
77 66 2
77 67 9
77 68 1
77 69 3
77 70 1
77 71 5
77 72 13
77 73 6
77 75 1
77 78 1
77 79 9
77 82 1
77 84 11
77 85 5
77 87 10
77 88 1
77 90 7
77 91 1
77 92 6
77 93 10
77 94 9
77 95 12
77 96 7
77 98 1
77 100 1
77 101 1
77 102 1
77 105 6
77 106 12
77 107 1
77 108 5
77 113 3
77 117 4
77 118 9
77 120 11
77 123 7
77 125 4
77 126 1
77 129 1
77 133 7
77 134 13
77 135 1
77 136 5
77 137 5
77 139 1
77 143 5
77 144 4
77 145 5
77 148 1
77 149 1
77 150 8
77 151 13
77 153 3
77 154 2
77 155 12
77 156 5
77 157 1
77 158 2
77 161 6
77 163 7
77 165 1
77 170 9
77 172 10
77 173 4
77 177 4
77 178 2
77 179 1
77 180 10
77 181 8
77 187 9
77 190 1
77 191 3
77 192 2
77 193 1
77 194 5
77 196 14
77 198 1
77 200 2
78 2 4
78 4 5
78 5 12
78 6 6
78 8 1
78 10 8
78 12 8
78 13 2
78 15 1
78 16 6
78 17 9
78 18 1
78 19 5
78 21 8
78 23 1
78 24 3
78 25 1
78 26 1
78 28 11
78 32 2
78 33 2
78 36 5
78 37 4
78 38 2
78 39 8
78 42 5
78 44 5
78 46 1
78 50 7
78 52 1
78 54 2
78 57 12
78 58 1
78 59 12
78 60 8
78 63 7
78 64 2
78 65 9
78 66 1
78 67 8
78 69 5
78 71 11
78 72 8
78 73 9
78 74 1
78 75 1
78 79 10
78 80 2
78 84 3
78 85 6
78 86 1
78 87 2
78 89 1
78 90 9
78 91 2
78 92 5
78 93 7
78 94 12
78 95 8
78 96 9
78 100 1
78 101 2
78 105 9
78 106 8
78 108 7
78 111 1
78 113 5
78 114 1
78 115 1
78 116 3
78 117 1
78 118 5
78 119 2
78 120 7
78 121 1
78 122 2
78 123 10
78 124 1
78 125 5
78 127 1
78 128 1
78 129 1
78 130 1
78 131 1
78 133 6
78 134 5
78 135 1
78 136 8
78 137 5
78 138 1
78 139 1
78 141 1
78 142 1
78 143 7
78 145 3
78 148 2
78 149 2
78 150 7
78 151 7
78 152 1
78 153 1
78 154 2
78 155 5
78 156 5
78 158 1
78 159 4
78 161 3
78 163 8
78 165 2
78 170 6
78 171 1
78 172 6
78 173 8
78 177 9
78 178 1
78 180 5
78 181 8
78 182 3
78 184 2
78 187 5
78 190 2
78 193 1
78 194 9
78 195 1
78 196 10
78 200 1
79 1 1
79 2 1
79 3 7
79 5 1
79 6 1
79 7 1
79 8 1
79 9 1
79 13 2
79 15 2
79 20 2
79 22 1
79 24 5
79 31 2
79 33 3
79 36 1
79 38 4
79 46 1
79 47 1
79 48 1
79 49 1
79 50 3
79 52 4
79 53 2
79 57 3
79 58 2
79 59 1
79 60 2
79 62 10
79 63 1
79 64 1
79 65 2
79 66 3
79 67 1
79 68 5
79 70 1
79 71 1
79 72 1
79 73 1
79 74 3
79 75 1
79 76 6
79 77 2
79 81 4
79 82 4
79 83 1
79 85 1
79 86 1
79 89 3
79 93 3
79 94 1
79 95 2
79 101 1
79 102 2
79 104 1
79 105 1
79 109 1
79 110 6
79 115 1
79 117 1
79 120 3
79 121 5
79 127 1
79 129 1
79 130 1
79 136 1
79 137 2
79 138 1
79 139 2
79 140 3
79 141 8
79 142 10
79 145 1
79 153 1
79 155 1
79 157 1
79 161 2
79 166 1
79 168 1
79 174 9
79 178 10
79 179 1
79 180 1
79 183 1
79 184 1
79 185 1
79 186 1
79 187 2
79 188 3
79 189 1
79 190 1
79 191 1
79 195 2
79 197 1
79 198 2
79 199 1
80 1 1
80 2 6
80 4 6
80 5 7
80 6 6
80 10 6
80 12 4
80 13 1
80 16 6
80 17 9
80 18 1
80 19 8
80 20 1
80 21 8
80 22 1
80 23 1
80 25 1
80 27 2
80 28 8
80 32 2
80 33 2
80 35 1
80 36 4
80 37 12
80 39 7
80 42 6
80 43 1
80 44 5
80 48 1
80 50 8
80 54 1
80 57 5
80 58 1
80 59 3
80 60 8
80 62 1
80 63 4
80 65 7
80 66 1
80 67 6
80 69 8
80 71 3
80 72 4
80 73 4
80 75 1
80 76 1
80 77 1
80 79 2
80 84 4
80 85 6
80 87 4
80 88 1
80 90 6
80 91 1
80 92 10
80 93 2
80 94 6
80 95 9
80 96 7
80 100 1
80 103 1
80 105 5
80 106 3
80 107 2
80 108 4
80 113 8
80 116 2
80 117 6
80 118 9
80 119 1
80 120 6
80 122 1
80 123 4
80 125 4
80 127 1
80 131 1
80 133 7
80 134 2
80 135 1
80 136 11
80 137 7
80 142 1
80 143 4
80 145 11
80 149 2
80 150 11
80 151 10
80 155 8
80 156 11
80 157 2
80 161 4
80 163 1
80 164 4
80 165 1
80 167 1
80 170 3
80 171 2
80 172 4
80 173 10
80 174 1
80 177 12
80 180 10
80 181 4
80 182 2
80 185 1
80 187 6
80 188 1
80 189 1
80 191 3
80 192 2
80 194 14
80 196 4
80 197 1
80 198 2
80 199 1
80 200 1
81 1 3
81 4 1
81 5 2
81 7 5
81 11 6
81 13 9
81 14 3
81 15 3
81 17 1
81 20 2
81 21 1
81 25 5
81 26 8
81 29 8
81 30 9
81 31 4
81 34 3
81 38 3
81 40 4
81 41 7
81 42 1
81 43 6
81 46 14
81 47 9
81 48 5
81 49 6
81 51 5
81 53 10
81 54 2
81 55 3
81 56 6
81 57 1
81 58 1
81 60 1
81 61 4
81 63 2
81 64 4
81 70 2
81 74 1
81 75 4
81 77 8
81 79 1
81 80 9
81 82 2
81 83 2
81 85 1
81 86 7
81 87 1
81 88 5
81 89 6
81 90 2
81 91 7
81 92 1
81 93 2
81 97 12
81 98 5
81 99 9
81 100 7
81 101 3
81 102 3
81 103 8
81 108 1
81 109 1
81 111 1
81 112 9
81 114 6
81 115 4
81 116 2
81 119 5
81 120 1
81 121 1
81 124 6
81 125 1
81 126 9
81 127 5
81 128 3
81 129 13
81 130 2
81 131 5
81 132 3
81 133 1
81 135 1
81 137 1
81 139 5
81 142 1
81 143 1
81 144 1
81 146 8
81 147 2
81 149 9
81 152 6
81 154 3
81 157 7
81 158 2
81 159 2
81 160 6
81 162 9
81 164 6
81 165 2
81 166 1
81 167 2
81 168 7
81 169 14
81 170 1
81 173 1
81 175 10
81 176 5
81 177 1
81 179 10
81 180 1
81 182 2
81 183 7
81 184 1
81 185 4
81 188 3
81 189 5
81 190 5
81 191 4
81 192 5
81 193 4
81 195 2
81 197 5
81 199 4
81 200 8
82 1 1
82 2 1
82 3 10
82 5 1
82 6 1
82 7 1
82 10 1
82 11 1
82 12 1
82 13 3
82 16 1
82 18 2
82 21 1
82 23 1
82 24 8
82 25 2
82 26 1
82 31 1
82 33 5
82 34 2
82 35 1
82 38 7
82 39 1
82 40 2
82 41 1
82 49 2
82 52 12
82 54 1
82 55 1
82 59 1
82 60 1
82 62 8
82 64 1
82 66 5
82 68 11
82 70 1
82 72 2
82 74 12
82 76 10
82 81 6
82 82 14
82 84 1
82 88 1
82 89 1
82 90 1
82 91 1
82 96 2
82 97 1
82 101 2
82 105 1
82 108 1
82 109 2
82 110 13
82 114 2
82 115 1
82 116 1
82 118 1
82 120 1
82 121 10
82 123 1
82 124 1
82 128 1
82 132 1
82 133 1
82 136 1
82 137 2
82 139 1
82 140 12
82 141 13
82 142 6
82 143 1
82 144 3
82 153 1
82 155 1
82 157 1
82 164 1
82 165 1
82 166 1
82 168 1
82 170 1
82 174 7
82 176 2
82 177 1
82 178 6
82 179 2
82 180 1
82 181 1
82 187 1
82 191 1
82 194 1
82 199 3
82 200 1
83 3 2
83 7 1
83 8 1
83 9 1
83 13 1
83 16 2
83 17 2
83 20 1
83 23 1
83 24 6
83 25 3
83 31 1
83 32 3
83 33 4
83 36 2
83 37 2
83 38 9
83 46 1
83 50 1
83 51 2
83 52 13
83 56 2
83 61 1
83 62 5
83 66 5
83 68 8
83 70 1
83 73 1
83 74 7
83 79 2
83 81 4
83 82 3
83 84 2
83 91 2
83 94 1
83 95 1
83 98 1
83 100 1
83 103 3
83 105 3
83 106 2
83 109 1
83 110 8
83 115 1
83 121 10
83 123 1
83 126 1
83 127 1
83 129 1
83 130 1
83 132 1
83 137 1
83 138 1
83 139 2
83 140 10
83 141 2
83 142 7
83 147 1
83 148 1
83 149 1
83 153 1
83 157 1
83 158 1
83 163 2
83 165 2
83 166 1
83 169 2
83 171 2
83 174 5
83 176 3
83 178 3
83 180 1
83 184 1
83 187 1
83 188 1
83 189 1
83 190 1
83 192 3
83 194 1
83 196 1
83 198 2
84 1 1
84 2 2
84 3 8
84 4 1
84 5 1
84 8 2
84 9 1
84 10 1
84 12 1
84 13 2
84 15 1
84 16 1
84 18 1
84 19 1
84 20 1
84 22 1
84 24 3
84 25 1
84 26 1
84 31 3
84 33 9
84 34 2
84 38 8
84 40 3
84 47 1
84 48 1
84 49 4
84 51 1
84 52 4
84 62 14
84 63 1
84 64 1
84 65 2
84 66 5
84 68 5
84 69 1
84 70 2
84 74 8
84 76 4
84 77 2
84 78 2
84 79 2
84 81 12
84 82 12
84 93 1
84 94 1
84 95 1
84 96 1
84 97 1
84 98 2
84 99 1
84 100 4
84 102 1
84 104 1
84 107 2
84 109 1
84 110 3
84 114 1
84 116 3
84 119 1
84 121 7
84 124 2
84 125 1
84 126 1
84 127 3
84 130 1
84 131 1
84 132 1
84 140 4
84 141 10
84 142 9
84 143 2
84 144 1
84 146 1
84 149 1
84 150 1
84 156 2
84 161 1
84 164 1
84 170 1
84 172 1
84 174 9
84 175 2
84 176 1
84 178 3
84 180 1
84 185 2
84 189 2
84 192 1
84 193 1
84 195 5
84 198 1
85 1 1
85 3 1
85 6 2
85 7 1
85 8 7
85 9 3
85 11 1
85 12 1
85 16 2
85 18 7
85 19 1
85 20 1
85 22 9
85 23 4
85 25 1
85 27 6
85 30 1
85 32 4
85 35 4
85 36 1
85 37 1
85 38 1
85 39 3
85 41 1
85 42 1
85 43 1
85 45 7
85 47 1
85 52 1
85 55 1
85 57 3
85 58 4
85 61 1
85 64 1
85 65 1
85 66 1
85 70 1
85 72 1
85 73 1
85 77 3
85 78 3
85 82 1
85 84 1
85 88 2
85 89 2
85 90 3
85 91 1
85 92 3
85 94 1
85 97 1
85 98 1
85 99 1
85 101 2
85 104 8
85 105 1
85 106 2
85 107 9
85 108 1
85 109 6
85 110 1
85 111 8
85 112 2
85 113 2
85 114 1
85 116 10
85 119 1
85 121 1
85 122 6
85 124 1
85 130 6
85 132 1
85 135 5
85 138 6
85 139 1
85 140 1
85 144 8
85 145 3
85 147 3
85 148 12
85 151 1
85 152 1
85 153 7
85 154 1
85 155 2
85 156 2
85 157 2
85 158 7
85 159 2
85 163 1
85 164 1
85 165 7
85 167 6
85 169 1
85 170 2
85 171 7
85 175 2
85 176 1
85 178 1
85 181 1
85 182 5
85 184 7
85 185 1
85 186 8
85 189 1
85 191 1
85 194 1
85 195 1
85 196 1
85 198 8
86 3 8
86 6 2
86 9 1
86 11 1
86 12 1
86 13 1
86 14 1
86 15 1
86 16 1
86 18 2
86 20 1
86 22 1
86 23 1
86 24 2
86 27 1
86 30 1
86 31 1
86 33 10
86 37 1
86 38 7
86 39 1
86 40 1
86 48 1
86 51 1
86 52 5
86 53 1
86 54 3
86 55 1
86 57 1
86 62 7
86 64 1
86 66 5
86 67 1
86 68 6
86 70 2
86 73 1
86 74 10
86 76 8
86 78 2
86 81 13
86 82 2
86 89 1
86 93 2
86 96 1
86 97 2
86 100 3
86 101 1
86 106 2
86 110 2
86 111 1
86 112 3
86 115 1
86 116 1
86 118 1
86 119 1
86 120 2
86 121 3
86 122 2
86 127 1
86 129 1
86 130 1
86 134 1
86 135 2
86 137 3
86 138 1
86 139 1
86 140 3
86 141 7
86 142 4
86 143 1
86 144 2
86 148 1
86 150 1
86 153 2
86 157 1
86 158 2
86 161 1
86 162 2
86 167 1
86 168 2
86 169 1
86 170 2
86 174 4
86 178 4
86 179 1
86 180 1
86 181 3
86 184 1
86 185 2
86 186 2
86 187 2
86 191 1
86 194 1
86 197 1
86 198 2
87 1 2
87 2 9
87 3 1
87 4 4
87 5 6
87 6 5
87 8 2
87 10 5
87 12 4
87 15 2
87 16 4
87 17 3
87 18 1
87 19 6
87 20 2
87 21 11
87 27 1
87 28 10
87 29 3
87 32 4
87 33 1
87 35 1
87 36 12
87 37 3
87 39 9
87 40 1
87 42 8
87 44 8
87 45 1
87 47 1
87 49 1
87 50 2
87 51 1
87 53 1
87 55 1
87 57 7
87 58 1
87 59 5
87 60 11
87 61 2
87 62 1
87 63 5
87 64 1
87 65 7
87 67 7
87 69 8
87 71 5
87 72 10
87 73 6
87 75 1
87 79 10
87 80 2
87 82 1
87 84 1
87 85 4
87 86 1
87 87 6
87 90 4
87 92 6
87 93 3
87 94 5
87 95 2
87 96 8
87 98 2
87 99 1
87 101 2
87 102 1
87 103 1
87 104 2
87 105 1
87 106 4
87 107 1
87 108 5
87 109 1
87 110 1
87 113 7
87 114 1
87 117 4
87 118 14
87 120 5
87 121 1
87 123 5
87 124 2
87 125 3
87 127 1
87 130 2
87 131 1
87 132 1
87 133 4
87 134 5
87 136 4
87 137 4
87 139 1
87 140 1
87 143 7
87 144 2
87 145 6
87 147 2
87 148 1
87 149 1
87 150 9
87 151 6
87 154 1
87 155 3
87 156 2
87 157 2
87 159 1
87 160 1
87 161 13
87 162 1
87 163 7
87 166 2
87 168 1
87 170 4
87 172 8
87 173 7
87 174 2
87 177 7
87 180 12
87 181 7
87 183 1
87 186 1
87 187 6
87 188 1
87 193 1
87 194 6
87 195 1
87 196 9
88 1 6
88 3 2
88 4 3
88 6 1
88 7 5
88 9 2
88 10 2
88 11 8
88 12 2
88 13 8
88 14 3
88 15 1
88 17 2
88 18 1
88 20 7
88 25 3
88 26 7
88 29 6
88 30 5
88 31 7
88 32 1
88 34 2
88 38 1
88 40 9
88 41 4
88 43 4
88 45 1
88 46 11
88 47 2
88 48 3
88 49 5
88 51 2
88 53 8
88 54 5
88 55 1
88 56 9
88 61 8
88 64 4
88 65 1
88 67 1
88 68 2
88 70 3
88 72 1
88 75 10
88 76 1
88 77 5
88 80 7
88 82 1
88 83 5
88 86 7
88 88 2
88 89 5
88 90 1
88 91 10
88 94 1
88 97 4
88 98 3
88 99 3
88 100 8
88 101 3
88 102 5
88 103 6
88 104 1
88 106 1
88 109 1
88 110 1
88 111 1
88 112 2
88 114 5
88 115 6
88 116 2
88 117 4
88 118 1
88 120 1
88 121 1
88 122 1
88 123 1
88 124 4
88 126 7
88 127 8
88 128 5
88 129 9
88 131 10
88 132 10
88 133 1
88 134 1
88 135 1
88 137 1
88 138 1
88 139 8
88 140 2
88 142 2
88 145 1
88 146 6
88 147 3
88 149 3
88 152 3
88 153 2
88 154 7
88 156 2
88 157 4
88 158 1
88 159 2
88 160 5
88 161 2
88 162 9
88 164 6
88 166 4
88 167 1
88 168 13
88 169 4
88 170 1
88 171 1
88 175 8
88 176 6
88 177 1
88 179 4
88 182 1
88 183 5
88 184 2
88 185 11
88 187 1
88 188 5
88 189 6
88 190 5
88 191 4
88 192 8
88 193 5
88 195 1
88 196 2
88 197 5
88 199 12
88 200 5
89 1 1
89 2 5
89 4 1
89 5 9
89 6 5
89 10 4
89 11 2
89 12 3
89 13 1
89 16 10
89 17 8
89 18 2
89 19 5
89 20 1
89 21 8
89 28 4
89 31 1
89 33 1
89 36 6
89 37 7
89 38 1
89 39 2
89 42 5
89 44 6
89 45 2
89 47 1
89 48 1
89 49 1
89 50 3
89 55 1
89 56 1
89 57 7
89 59 8
89 60 3
89 63 4
89 64 1
89 65 6
89 66 1
89 67 5
89 68 1
89 69 6
89 70 1
89 71 7
89 72 7
89 73 5
89 75 1
89 77 1
89 78 2
89 79 4
89 81 2
89 82 3
89 83 1
89 84 3
89 85 6
89 87 6
89 90 8
89 92 8
89 93 5
89 94 6
89 95 5
89 96 5
89 100 1
89 101 1
89 105 9
89 106 9
89 108 13
89 109 2
89 111 1
89 112 2
89 113 7
89 116 2
89 117 4
89 118 10
89 119 3
89 120 4
89 122 1
89 123 3
89 124 3
89 125 10
89 128 1
89 133 4
89 134 1
89 136 14
89 137 6
89 139 1
89 140 1
89 141 1
89 143 4
89 145 3
89 147 1
89 148 1
89 150 3
89 151 8
89 155 6
89 156 6
89 160 2
89 161 8
89 163 4
89 165 1
89 166 1
89 167 1
89 168 1
89 170 4
89 171 1
89 172 12
89 173 6
89 175 1
89 176 1
89 177 6
89 178 1
89 180 4
89 181 6
89 182 1
89 183 1
89 184 1
89 187 8
89 188 1
89 192 1
89 194 6
89 195 1
89 196 6
89 198 1
89 199 1
90 1 1
90 2 4
90 3 1
90 4 7
90 5 2
90 6 9
90 8 1
90 9 1
90 10 8
90 11 1
90 12 6
90 14 2
90 16 4
90 17 4
90 18 2
90 19 8
90 21 4
90 22 1
90 24 1
90 25 1
90 27 2
90 28 9
90 29 3
90 31 1
90 32 1
90 36 5
90 37 4
90 38 2
90 39 8
90 41 1
90 42 7
90 44 7
90 50 6
90 52 1
90 56 2
90 57 6
90 58 1
90 59 5
90 60 8
90 61 2
90 63 8
90 64 1
90 65 6
90 67 7
90 69 3
90 70 1
90 71 7
90 72 7
90 73 4
90 74 1
90 76 2
90 77 2
90 78 1
90 79 4
90 80 1
90 81 1
90 82 2
90 84 4
90 85 5
90 87 2
90 90 9
90 92 2
90 93 3
90 94 3
90 95 6
90 96 6
90 98 1
90 99 1
90 100 2
90 103 2
90 104 1
90 105 4
90 106 2
90 108 7
90 113 9
90 114 3
90 117 9
90 118 8
90 120 4
90 123 8
90 125 7
90 133 8
90 134 11
90 136 9
90 137 3
90 139 1
90 142 2
90 143 4
90 145 4
90 146 1
90 149 1
90 150 9
90 151 4
90 154 1
90 155 8
90 156 9
90 157 2
90 161 4
90 163 8
90 165 1
90 167 1
90 169 1
90 170 3
90 172 5
90 173 7
90 174 1
90 176 1
90 177 8
90 178 1
90 179 1
90 180 8
90 181 4
90 183 1
90 186 1
90 189 2
90 190 1
90 193 1
90 194 6
90 196 4
90 198 2
90 200 1
91 1 2
91 3 12
91 8 1
91 9 2
91 14 2
91 24 10
91 25 1
91 29 1
91 33 6
91 35 1
91 36 1
91 38 8
91 40 1
91 44 1
91 46 1
91 52 10
91 54 1
91 56 2
91 58 2
91 59 3
91 61 1
91 62 7
91 63 2
91 66 1
91 68 2
91 74 7
91 76 5
91 78 1
91 81 6
91 82 7
91 84 4
91 88 3
91 90 1
91 91 1
91 92 1
91 94 1
91 95 1
91 96 1
91 97 1
91 98 1
91 99 1
91 101 1
91 108 1
91 110 10
91 111 1
91 113 1
91 115 1
91 117 2
91 121 6
91 127 1
91 133 1
91 135 1
91 137 4
91 139 1
91 140 7
91 141 12
91 142 4
91 143 2
91 145 1
91 146 1
91 147 3
91 150 2
91 154 1
91 158 1
91 160 1
91 162 1
91 169 2
91 170 1
91 173 1
91 174 9
91 178 9
91 180 2
91 181 1
91 185 1
91 187 1
91 188 1
91 190 1
91 193 1
91 196 1
91 197 2
92 1 1
92 2 10
92 4 17
92 5 9
92 6 9
92 10 7
92 12 6
92 13 1
92 16 7
92 17 9
92 19 10
92 20 1
92 21 6
92 24 2
92 25 1
92 26 4
92 28 7
92 29 1
92 31 2
92 33 2
92 36 6
92 37 6
92 39 8
92 42 5
92 44 5
92 45 1
92 50 8
92 55 1
92 57 6
92 58 2
92 59 8
92 60 2
92 61 1
92 63 6
92 65 6
92 66 1
92 67 6
92 68 1
92 69 8
92 70 1
92 71 6
92 72 5
92 73 4
92 78 1
92 79 8
92 81 2
92 82 1
92 83 1
92 84 5
92 85 6
92 86 2
92 87 6
92 88 1
92 90 8
92 92 7
92 93 4
92 94 7
92 95 5
92 96 3
92 102 2
92 105 8
92 106 4
92 108 4
92 109 1
92 110 1
92 111 1
92 113 12
92 117 5
92 118 6
92 120 7
92 123 7
92 125 6
92 126 1
92 128 1
92 129 2
92 130 2
92 132 2
92 133 6
92 134 7
92 135 1
92 136 4
92 137 4
92 141 1
92 143 11
92 145 8
92 146 2
92 147 2
92 150 7
92 151 9
92 152 1
92 153 1
92 154 1
92 155 8
92 156 8
92 157 1
92 158 1
92 160 3
92 161 8
92 163 7
92 165 1
92 167 1
92 170 9
92 172 6
92 173 7
92 175 2
92 177 6
92 179 1
92 180 7
92 181 8
92 182 1
92 185 1
92 187 5
92 188 1
92 189 1
92 191 2
92 194 7
92 196 5
92 198 1
92 200 1
93 1 4
93 4 1
93 5 1
93 7 2
93 8 1
93 10 2
93 11 5
93 12 2
93 13 4
93 14 9
93 15 2
93 16 1
93 19 2
93 20 6
93 22 1
93 24 1
93 25 6
93 26 6
93 28 1
93 29 6
93 30 7
93 31 8
93 34 10
93 36 1
93 37 1
93 38 2
93 39 1
93 40 9
93 41 4
93 42 1
93 43 10
93 46 13
93 47 10
93 48 5
93 49 9
93 51 6
93 53 1
93 54 7
93 55 9
93 56 5
93 58 1
93 59 4
93 60 1
93 61 8
93 62 1
93 63 2
93 64 8
93 70 11
93 72 2
93 75 5
93 77 5
93 79 1
93 80 12
93 83 9
93 86 8
93 88 2
93 89 8
93 90 1
93 91 9
93 92 1
93 93 1
93 97 7
93 98 3
93 99 5
93 100 3
93 101 6
93 102 4
93 103 5
93 105 1
93 108 2
93 110 3
93 111 1
93 112 5
93 114 4
93 115 10
93 116 2
93 119 5
93 124 7
93 126 5
93 127 4
93 128 10
93 129 8
93 131 5
93 132 10
93 134 2
93 135 1
93 137 1
93 138 1
93 139 6
93 142 2
93 143 1
93 146 10
93 147 2
93 149 6
93 152 5
93 154 2
93 156 1
93 157 7
93 158 1
93 159 8
93 160 7
93 162 5
93 163 2
93 164 7
93 166 3
93 167 1
93 168 2
93 169 7
93 170 1
93 175 8
93 176 5
93 177 1
93 178 2
93 179 4
93 182 1
93 183 5
93 184 1
93 185 1
93 186 1
93 187 1
93 188 8
93 189 7
93 190 7
93 191 7
93 192 6
93 193 5
93 197 7
93 198 4
93 199 10
93 200 1
94 1 1
94 2 4
94 3 1
94 4 3
94 5 7
94 6 4
94 8 3
94 10 1
94 12 3
94 13 1
94 16 3
94 17 2
94 18 1
94 19 6
94 21 8
94 23 1
94 27 1
94 28 6
94 33 1
94 34 1
94 35 3
94 36 5
94 37 7
94 39 3
94 42 4
94 43 2
94 44 5
94 45 3
94 46 1
94 48 1
94 50 4
94 51 3
94 52 3
94 55 2
94 57 8
94 59 2
94 60 8
94 61 1
94 62 1
94 63 7
94 64 1
94 65 6
94 67 8
94 68 1
94 69 11
94 70 1
94 71 12
94 72 6
94 73 8
94 75 1
94 76 1
94 77 1
94 79 3
94 80 1
94 83 1
94 84 5
94 85 3
94 87 6
94 90 4
94 92 1
94 93 8
94 94 8
94 95 7
94 96 4
94 100 1
94 103 1
94 104 1
94 105 6
94 106 10
94 108 6
94 109 1
94 110 1
94 112 1
94 113 11
94 114 1
94 115 1
94 117 5
94 118 8
94 120 6
94 121 4
94 123 6
94 125 8
94 128 2
94 129 1
94 130 1
94 131 1
94 132 1
94 133 7
94 134 8
94 136 4
94 137 6
94 139 1
94 140 2
94 141 1
94 143 14
94 144 1
94 145 8
94 147 1
94 150 3
94 151 11
94 152 1
94 155 7
94 156 7
94 161 4
94 162 1
94 163 6
94 166 1
94 168 1
94 170 5
94 172 11
94 173 2
94 175 3
94 177 4
94 178 1
94 180 4
94 181 7
94 182 1
94 183 1
94 185 1
94 186 1
94 187 6
94 190 3
94 191 1
94 192 1
94 194 4
94 196 6
94 198 1
94 199 2
95 1 1
95 2 3
95 3 2
95 4 3
95 5 3
95 6 4
95 10 6
95 12 12
95 14 1
95 15 1
95 16 9
95 17 11
95 18 1
95 19 5
95 20 3
95 21 5
95 22 2
95 23 1
95 28 5
95 29 1
95 30 2
95 32 1
95 36 3
95 37 5
95 39 6
95 40 1
95 42 5
95 44 10
95 50 9
95 57 8
95 58 1
95 59 5
95 60 4
95 62 1
95 63 8
95 65 6
95 67 10
95 69 3
95 71 5
95 72 6
95 73 3
95 74 2
95 76 1
95 79 6
95 83 2
95 84 5
95 85 4
95 87 7
95 88 1
95 89 2
95 90 6
95 92 4
95 93 3
95 94 4
95 95 6
95 96 5
95 99 1
95 104 1
95 105 8
95 106 5
95 107 1
95 108 6
95 110 1
95 113 2
95 114 1
95 116 1
95 117 6
95 118 6
95 120 3
95 121 1
95 123 4
95 124 2
95 125 5
95 127 1
95 130 1
95 133 5
95 134 3
95 135 1
95 136 4
95 137 3
95 139 1
95 140 1
95 141 1
95 143 5
95 144 1
95 145 6
95 148 1
95 150 7
95 151 4
95 153 1
95 154 1
95 155 2
95 156 6
95 157 1
95 160 1
95 161 9
95 163 6
95 165 2
95 167 2
95 170 6
95 172 4
95 173 4
95 175 1
95 177 6
95 179 1
95 180 7
95 181 6
95 184 1
95 185 2
95 187 2
95 191 1
95 194 9
95 196 5
95 198 2
95 199 1
96 1 1
96 2 7
96 3 1
96 4 1
96 5 6
96 6 4
96 10 6
96 11 1
96 12 7
96 13 1
96 15 1
96 16 6
96 17 7
96 19 5
96 20 1
96 21 10
96 23 2
96 24 1
96 26 2
96 28 3
96 30 1
96 31 1
96 36 7
96 37 5
96 39 5
96 41 1
96 42 4
96 43 2
96 44 7
96 50 3
96 53 1
96 55 1
96 56 2
96 57 8
96 59 9
96 60 8
96 62 1
96 63 5
96 64 1
96 65 9
96 67 7
96 68 1
96 69 4
96 71 4
96 72 5
96 73 7
96 74 1
96 76 1
96 77 1
96 79 5
96 82 1
96 83 1
96 84 3
96 85 5
96 87 3
96 88 1
96 89 1
96 90 4
96 92 6
96 93 5
96 94 10
96 95 8
96 96 1
96 97 1
96 99 1
96 102 1
96 103 1
96 105 11
96 106 4
96 107 2
96 108 4
96 113 1
96 114 1
96 115 1
96 116 1
96 117 3
96 118 6
96 120 5
96 123 4
96 124 2
96 125 3
96 126 1
96 129 1
96 131 1
96 133 3
96 134 5
96 136 5
96 137 3
96 141 1
96 143 10
96 145 6
96 146 1
96 147 2
96 150 3
96 151 10
96 152 1
96 155 8
96 156 4
96 160 1
96 161 7
96 162 1
96 163 2
96 164 1
96 166 1
96 167 1
96 169 1
96 170 8
96 171 1
96 173 3
96 177 4
96 180 9
96 181 2
96 184 1
96 185 2
96 186 1
96 187 7
96 189 2
96 193 1
96 194 5
96 195 1
96 196 3
97 1 3
97 6 1
97 7 5
97 11 8
97 13 5
97 14 6
97 15 1
97 16 1
97 17 2
97 20 9
97 26 1
97 28 1
97 29 10
97 30 1
97 31 1
97 33 1
97 34 3
97 38 1
97 39 1
97 40 1
97 41 3
97 43 2
97 44 1
97 46 4
97 47 4
97 48 5
97 49 8
97 51 6
97 53 9
97 54 5
97 55 6
97 56 3
97 58 1
97 61 7
97 62 2
97 63 1
97 64 4
97 65 1
97 67 2
97 70 5
97 72 1
97 74 2
97 75 10
97 76 1
97 77 6
97 80 3
97 83 7
97 86 5
97 88 5
97 89 5
97 91 5
97 92 2
97 96 2
97 97 6
97 98 3
97 99 2
97 100 6
97 101 6
97 102 8
97 103 2
97 104 1
97 105 1
97 107 1
97 112 5
97 113 1
97 114 4
97 115 1
97 116 2
97 118 1
97 119 3
97 124 7
97 126 5
97 127 3
97 128 8
97 129 3
97 131 13
97 132 3
97 139 7
97 140 1
97 145 1
97 146 10
97 149 3
97 150 1
97 151 1
97 152 10
97 154 4
97 157 2
97 159 3
97 160 3
97 162 4
97 164 5
97 166 5
97 168 3
97 169 7
97 171 1
97 172 1
97 175 2
97 176 7
97 179 2
97 182 1
97 183 6
97 185 4
97 186 2
97 188 7
97 189 9
97 190 4
97 191 6
97 192 3
97 193 6
97 196 2
97 197 5
97 199 3
97 200 5
98 2 9
98 4 2
98 5 8
98 6 7
98 7 3
98 8 2
98 10 5
98 11 1
98 12 4
98 13 1
98 15 1
98 16 5
98 17 8
98 19 7
98 20 3
98 21 5
98 24 1
98 28 3
98 29 1
98 30 1
98 31 1
98 36 6
98 37 3
98 39 4
98 42 7
98 44 1
98 47 1
98 50 3
98 51 1
98 53 1
98 55 1
98 57 4
98 59 6
98 60 9
98 62 1
98 63 8
98 65 9
98 67 4
98 69 11
98 70 5
98 71 5
98 72 5
98 73 3
98 75 1
98 76 1
98 79 12
98 81 1
98 84 7
98 85 8
98 87 9
98 89 1
98 90 8
98 92 12
98 93 5
98 94 6
98 95 8
98 96 13
98 98 2
98 100 1
98 101 1
98 102 1
98 104 1
98 105 4
98 106 5
98 108 8
98 110 1
98 113 10
98 116 1
98 117 7
98 118 4
98 120 3
98 121 1
98 123 9
98 125 7
98 132 2
98 133 2
98 134 11
98 135 1
98 136 7
98 137 4
98 143 9
98 145 3
98 147 1
98 148 1
98 149 1
98 150 6
98 151 2
98 153 1
98 154 2
98 155 8
98 156 12
98 158 2
98 160 1
98 161 4
98 162 1
98 163 6
98 164 2
98 165 1
98 167 1
98 168 2
98 170 4
98 171 1
98 172 10
98 173 8
98 174 1
98 175 1
98 177 5
98 179 1
98 180 7
98 181 7
98 183 3
98 187 1
98 188 2
98 189 1
98 192 1
98 193 1
98 194 8
98 196 11
98 197 3
98 200 1
99 1 3
99 3 1
99 4 1
99 6 5
99 7 3
99 8 2
99 11 5
99 12 2
99 13 12
99 14 6
99 16 1
99 19 1
99 20 12
99 25 13
99 26 6
99 29 5
99 30 7
99 31 3
99 33 1
99 34 8
99 36 1
99 38 1
99 39 1
99 40 3
99 41 1
99 43 7
99 46 6
99 47 11
99 48 10
99 49 4
99 51 7
99 52 1
99 53 11
99 54 7
99 55 7
99 56 2
99 58 1
99 59 1
99 60 1
99 61 3
99 62 1
99 64 8
99 65 1
99 68 3
99 69 1
99 70 2
99 71 1
99 74 1
99 75 11
99 76 1
99 77 5
99 78 2
99 79 1
99 80 7
99 81 1
99 82 1
99 83 4
99 86 3
99 88 10
99 89 3
99 91 5
99 93 1
99 97 7
99 98 5
99 99 9
99 100 4
99 101 7
99 102 5
99 103 8
99 104 1
99 107 5
99 109 1
99 110 2
99 112 2
99 114 5
99 115 5
99 117 1
99 118 2
99 119 3
99 120 1
99 122 1
99 123 2
99 124 6
99 125 1
99 126 9
99 127 3
99 128 5
99 129 7
99 130 1
99 131 4
99 132 3
99 136 1
99 139 4
99 140 2
99 144 1
99 145 1
99 146 8
99 147 1
99 149 10
99 150 2
99 152 1
99 154 2
99 157 5
99 158 1
99 159 7
99 160 6
99 162 6
99 163 1
99 164 4
99 165 1
99 166 2
99 168 2
99 169 7
99 173 2
99 175 7
99 176 4
99 177 3
99 179 2
99 182 1
99 183 6
99 184 1
99 185 6
99 188 5
99 189 7
99 190 9
99 191 3
99 192 6
99 193 6
99 195 1
99 197 4
99 198 3
99 199 10
99 200 4
100 2 1
100 3 7
100 8 1
100 10 1
100 12 1
100 19 1
100 24 14
100 29 1
100 31 1
100 33 11
100 34 3
100 35 2
100 38 3
100 40 1
100 41 1
100 44 1
100 47 1
100 48 1
100 52 5
100 58 1
100 62 5
100 63 1
100 66 6
100 68 7
100 70 1
100 72 1
100 74 9
100 76 6
100 81 10
100 82 4
100 83 1
100 90 1
100 94 1
100 95 1
100 96 2
100 97 1
100 98 1
100 101 1
100 103 1
100 106 1
100 110 8
100 113 1
100 114 1
100 115 2
100 117 1
100 121 10
100 122 1
100 127 1
100 129 2
100 133 3
100 137 1
100 139 2
100 140 8
100 141 6
100 142 4
100 146 1
100 147 1
100 148 1
100 152 1
100 153 1
100 154 1
100 159 2
100 161 2
100 162 2
100 164 1
100 169 1
100 174 8
100 175 1
100 178 1
100 181 1
100 182 1
100 183 1
100 186 1
100 189 1
100 190 2
100 191 2
100 195 1
101 2 6
101 4 9
101 5 5
101 6 7
101 7 3
101 8 1
101 10 3
101 12 8
101 13 2
101 14 1
101 16 8
101 17 2
101 18 1
101 19 11
101 21 3
101 23 1
101 25 4
101 27 2
101 28 3
101 29 1
101 30 1
101 31 1
101 33 1
101 35 1
101 36 6
101 37 4
101 39 9
101 40 1
101 41 1
101 42 7
101 43 1
101 44 7
101 47 2
101 48 1
101 50 11
101 51 1
101 54 1
101 55 2
101 57 6
101 58 1
101 59 8
101 60 6
101 61 2
101 62 2
101 63 4
101 64 1
101 65 5
101 66 1
101 67 8
101 69 4
101 71 9
101 72 7
101 73 7
101 75 1
101 76 1
101 77 1
101 79 3
101 81 1
101 84 9
101 85 6
101 87 7
101 90 4
101 91 1
101 92 8
101 93 2
101 94 12
101 95 11
101 96 5
101 98 1
101 101 2
101 102 1
101 104 1
101 105 9
101 106 6
101 107 2
101 108 5
101 109 1
101 111 2
101 112 1
101 113 4
101 116 3
101 117 6
101 118 6
101 120 3
101 123 5
101 125 8
101 127 1
101 128 2
101 131 1
101 132 1
101 133 11
101 134 4
101 136 5
101 137 2
101 139 1
101 140 1
101 141 1
101 142 1
101 143 7
101 144 1
101 145 5
101 146 3
101 149 2
101 150 8
101 151 3
101 152 1
101 153 1
101 155 3
101 156 7
101 158 2
101 161 9
101 162 1
101 163 8
101 164 1
101 165 1
101 170 7
101 172 4
101 173 8
101 177 6
101 179 1
101 180 5
101 181 5
101 183 1
101 187 5
101 191 1
101 192 3
101 194 9
101 195 1
101 196 6
101 199 2
102 1 1
102 2 4
102 3 1
102 4 5
102 5 1
102 6 6
102 7 1
102 8 1
102 10 11
102 12 8
102 14 1
102 15 2
102 16 8
102 17 5
102 18 2
102 19 3
102 20 2
102 21 6
102 22 1
102 27 2
102 28 2
102 29 1
102 34 1
102 36 4
102 37 4
102 39 10
102 41 1
102 42 8
102 44 7
102 45 1
102 46 1
102 47 1
102 50 11
102 51 2
102 55 1
102 56 1
102 57 4
102 59 7
102 60 5
102 61 2
102 62 3
102 63 12
102 65 6
102 67 5
102 69 5
102 71 7
102 72 5
102 73 2
102 75 2
102 78 2
102 79 6
102 81 1
102 84 5
102 85 6
102 87 3
102 90 9
102 92 3
102 93 7
102 94 6
102 95 7
102 96 7
102 97 2
102 98 1
102 99 1
102 102 1
102 105 5
102 106 14
102 108 8
102 109 1
102 111 1
102 113 5
102 114 1
102 115 3
102 116 2
102 117 7
102 118 6
102 120 3
102 121 2
102 123 2
102 124 1
102 125 7
102 126 3
102 130 1
102 133 5
102 134 6
102 136 1
102 137 5
102 138 1
102 139 1
102 141 1
102 142 2
102 143 8
102 144 1
102 145 2
102 146 1
102 150 8
102 151 6
102 152 1
102 154 1
102 155 7
102 156 9
102 158 2
102 160 1
102 161 7
102 163 4
102 165 1
102 167 1
102 168 1
102 169 2
102 170 2
102 172 6
102 173 8
102 175 1
102 177 8
102 180 5
102 181 7
102 185 2
102 187 6
102 189 1
102 191 1
102 192 2
102 194 4
102 196 5
102 197 1
102 198 1
102 199 3
103 1 2
103 2 1
103 3 2
103 4 1
103 5 1
103 7 3
103 13 1
103 14 2
103 15 1
103 16 1
103 19 4
103 22 2
103 23 1
103 24 4
103 27 1
103 30 1
103 33 3
103 34 2
103 36 1
103 38 5
103 39 1
103 40 3
103 42 1
103 44 1
103 46 1
103 47 3
103 48 2
103 49 1
103 52 4
103 53 1
103 57 2
103 58 1
103 61 1
103 62 9
103 65 1
103 66 9
103 67 1
103 68 4
103 71 2
103 72 2
103 74 5
103 76 6
103 77 1
103 78 1
103 80 1
103 81 7
103 82 4
103 84 1
103 86 1
103 87 1
103 88 1
103 91 1
103 96 2
103 97 1
103 98 2
103 103 1
103 104 1
103 107 1
103 109 1
103 110 3
103 113 1
103 118 1
103 119 1
103 120 1
103 121 9
103 124 1
103 126 1
103 128 2
103 129 1
103 130 1
103 133 1
103 134 1
103 136 2
103 140 4
103 141 7
103 142 5
103 143 1
103 145 1
103 148 1
103 151 1
103 152 1
103 155 4
103 159 1
103 161 1
103 164 2
103 166 1
103 169 1
103 171 2
103 172 1
103 174 4
103 176 1
103 178 6
103 182 1
103 191 2
103 198 1
104 2 2
104 4 4
104 5 6
104 6 6
104 7 2
104 8 1
104 10 1
104 12 4
104 13 3
104 16 5
104 17 5
104 19 4
104 20 2
104 21 3
104 22 1
104 24 4
104 27 1
104 28 6
104 29 1
104 32 1
104 34 1
104 36 7
104 37 6
104 38 1
104 39 6
104 41 2
104 42 8
104 44 2
104 47 1
104 50 6
104 54 2
104 57 13
104 58 1
104 59 5
104 60 7
104 62 2
104 63 5
104 64 1
104 65 2
104 67 5
104 68 3
104 69 8
104 70 1
104 71 6
104 72 8
104 73 6
104 75 2
104 76 2
104 77 1
104 78 2
104 79 6
104 80 2
104 82 2
104 83 1
104 84 1
104 85 4
104 87 5
104 88 1
104 90 4
104 92 3
104 93 2
104 94 3
104 95 2
104 96 2
104 97 1
104 101 1
104 104 1
104 105 5
104 106 3
104 107 1
104 108 3
104 112 1
104 113 2
104 115 2
104 117 4
104 118 4
104 120 3
104 123 6
104 125 9
104 131 1
104 133 9
104 134 7
104 137 7
104 140 1
104 142 1
104 143 5
104 144 1
104 145 8
104 148 1
104 150 5
104 151 6
104 154 1
104 155 10
104 156 11
104 158 1
104 161 4
104 163 3
104 166 1
104 168 1
104 169 2
104 170 3
104 171 1
104 172 8
104 173 4
104 174 1
104 175 1
104 176 1
104 180 10
104 181 9
104 183 1
104 187 5
104 190 1
104 191 3
104 192 5
104 194 3
104 195 2
104 196 2
104 200 1
105 3 4
105 4 1
105 6 2
105 7 1
105 10 1
105 12 2
105 16 1
105 22 1
105 24 9
105 27 2
105 33 4
105 34 1
105 35 2
105 38 3
105 42 1
105 43 1
105 44 2
105 45 1
105 50 1
105 51 3
105 52 7
105 58 2
105 62 4
105 63 1
105 64 1
105 66 6
105 67 3
105 68 8
105 71 1
105 72 1
105 73 1
105 74 7
105 75 2
105 76 10
105 77 1
105 80 2
105 81 9
105 82 3
105 86 1
105 90 1
105 97 3
105 99 2
105 100 1
105 101 1
105 103 2
105 110 6
105 112 1
105 113 2
105 114 1
105 115 2
105 117 1
105 119 1
105 120 1
105 121 9
105 123 1
105 124 2
105 126 1
105 127 1
105 136 1
105 138 2
105 140 6
105 141 2
105 142 7
105 145 2
105 147 1
105 149 2
105 150 2
105 154 1
105 159 1
105 160 1
105 161 1
105 162 1
105 164 2
105 165 1
105 169 1
105 170 1
105 171 1
105 172 3
105 173 2
105 174 7
105 177 1
105 178 4
105 179 1
105 180 3
105 182 2
105 184 1
105 186 1
105 191 2
105 197 1
105 200 1
106 5 1
106 7 2
106 8 7
106 9 4
106 12 1
106 14 1
106 15 2
106 16 1
106 18 7
106 20 2
106 22 6
106 23 9
106 24 1
106 27 4
106 28 1
106 29 1
106 32 9
106 34 1
106 35 4
106 36 1
106 38 1
106 40 2
106 45 7
106 49 1
106 53 2
106 54 1
106 56 1
106 57 1
106 58 5
106 60 2
106 66 1
106 72 1
106 73 2
106 75 1
106 76 2
106 78 2
106 81 1
106 82 1
106 85 1
106 87 1
106 88 1
106 91 1
106 92 1
106 94 1
106 97 1
106 98 1
106 99 1
106 102 2
106 104 5
106 106 1
106 107 1
106 109 6
106 111 6
106 112 3
106 113 1
106 114 1
106 115 1
106 116 4
106 120 2
106 121 1
106 122 5
106 123 1
106 124 2
106 125 1
106 128 1
106 129 1
106 130 4
106 131 1
106 133 1
106 134 2
106 135 4
106 138 5
106 139 1
106 140 2
106 141 1
106 144 6
106 147 4
106 148 8
106 152 2
106 153 2
106 158 9
106 165 3
106 167 2
106 168 2
106 171 7
106 172 1
106 177 1
106 182 7
106 183 1
106 184 3
106 185 1
106 186 4
106 189 1
106 190 1
106 193 1
106 194 1
106 195 2
106 197 1
106 198 11
107 1 2
107 2 2
107 4 1
107 5 1
107 8 7
107 9 4
107 13 1
107 15 7
107 16 2
107 18 8
107 21 1
107 22 4
107 23 3
107 24 4
107 25 1
107 27 11
107 28 1
107 30 2
107 32 8
107 33 1
107 35 3
107 36 2
107 37 2
107 40 1
107 41 1
107 43 1
107 44 1
107 45 3
107 46 1
107 48 3
107 49 1
107 55 1
107 58 5
107 63 1
107 64 2
107 65 2
107 66 1
107 69 1
107 74 1
107 78 3
107 81 3
107 87 2
107 89 1
107 90 1
107 92 1
107 98 1
107 100 2
107 102 2
107 104 6
107 107 3
107 108 1
107 109 3
107 111 7
107 112 2
107 113 2
107 116 6
107 118 1
107 121 1
107 122 4
107 126 1
107 127 1
107 130 4
107 131 1
107 132 1
107 133 2
107 134 1
107 135 4
107 138 6
107 139 1
107 140 2
107 142 1
107 144 5
107 145 1
107 147 3
107 148 3
107 151 1
107 153 6
107 157 1
107 158 8
107 162 2
107 165 2
107 166 1
107 167 7
107 171 4
107 174 4
107 176 1
107 177 1
107 178 1
107 179 2
107 182 5
107 184 6
107 185 1
107 186 1
107 187 1
107 191 1
107 192 1
107 194 1
107 195 6
107 198 6
108 1 9
108 2 1
108 3 1
108 7 5
108 8 3
108 11 3
108 13 6
108 14 7
108 15 1
108 16 2
108 20 4
108 22 2
108 25 9
108 26 3
108 29 7
108 30 7
108 31 6
108 34 5
108 36 1
108 37 1
108 40 1
108 41 6
108 43 10
108 44 1
108 46 7
108 47 4
108 48 7
108 49 8
108 50 1
108 51 3
108 52 1
108 53 5
108 54 6
108 55 8
108 56 4
108 58 3
108 60 1
108 61 5
108 64 6
108 65 1
108 66 1
108 68 1
108 70 2
108 72 1
108 73 1
108 75 4
108 76 1
108 77 5
108 79 2
108 80 4
108 81 1
108 82 1
108 83 5
108 84 1
108 86 6
108 88 5
108 89 1
108 90 1
108 91 9
108 92 2
108 94 2
108 95 1
108 97 4
108 98 8
108 99 7
108 100 6
108 101 8
108 102 5
108 103 7
108 104 1
108 105 1
108 108 1
108 110 2
108 111 1
108 112 6
108 113 1
108 114 9
108 115 9
108 117 1
108 118 1
108 119 7
108 123 1
108 124 1
108 125 1
108 126 5
108 127 1
108 128 7
108 129 4
108 130 2
108 131 5
108 132 6
108 134 1
108 135 1
108 136 1
108 137 1
108 139 8
108 140 2
108 146 7
108 148 1
108 149 4
108 152 4
108 154 10
108 157 11
108 159 10
108 160 1
108 162 2
108 164 8
108 166 4
108 168 3
108 169 5
108 171 2
108 172 1
108 173 1
108 174 1
108 175 3
108 176 6
108 178 1
108 179 13
108 182 1
108 183 4
108 184 3
108 185 6
108 186 1
108 188 4
108 189 3
108 190 8
108 191 7
108 192 6
108 193 5
108 196 1
108 197 8
108 199 7
108 200 3
109 2 1
109 3 7
109 5 2
109 6 1
109 8 2
109 9 1
109 10 3
109 12 1
109 13 1
109 14 1
109 15 1
109 17 1
109 20 1
109 22 1
109 24 7
109 25 3
109 26 1
109 32 1
109 33 6
109 35 1
109 38 4
109 41 3
109 44 1
109 45 1
109 48 1
109 52 9
109 53 1
109 54 1
109 55 2
109 56 2
109 61 1
109 62 8
109 64 1
109 66 7
109 67 1
109 68 3
109 70 1
109 74 4
109 76 6
109 78 1
109 80 1
109 81 3
109 82 4
109 84 1
109 85 1
109 88 1
109 89 1
109 95 4
109 97 1
109 98 3
109 99 1
109 102 1
109 103 2
109 104 2
109 107 1
109 109 1
109 110 7
109 113 1
109 116 1
109 121 7
109 125 1
109 127 1
109 128 1
109 130 1
109 133 1
109 140 12
109 141 3
109 142 5
109 145 2
109 147 1
109 153 1
109 154 1
109 155 2
109 158 3
109 159 2
109 162 1
109 164 1
109 165 2
109 166 1
109 168 1
109 169 2
109 170 2
109 171 1
109 174 2
109 175 1
109 176 1
109 177 1
109 178 8
109 180 1
109 182 1
109 184 2
109 188 1
109 192 1
109 198 1
110 1 1
110 3 5
110 4 1
110 7 1
110 8 1
110 9 1
110 14 1
110 15 2
110 17 2
110 20 2
110 22 1
110 23 1
110 24 1
110 25 1
110 26 2
110 28 1
110 29 1
110 30 2
110 31 1
110 32 2
110 33 6
110 37 1
110 38 4
110 43 1
110 44 1
110 45 1
110 52 2
110 53 1
110 57 1
110 59 2
110 61 2
110 62 3
110 63 1
110 66 2
110 67 3
110 68 3
110 72 3
110 73 1
110 74 6
110 75 1
110 76 5
110 78 1
110 79 1
110 81 6
110 82 5
110 83 3
110 87 1
110 98 2
110 99 1
110 105 2
110 106 1
110 107 1
110 110 9
110 113 1
110 114 1
110 118 1
110 121 3
110 123 1
110 124 1
110 125 2
110 126 1
110 127 2
110 128 1
110 132 2
110 133 1
110 134 1
110 136 1
110 139 1
110 140 6
110 141 8
110 142 7
110 143 3
110 144 1
110 145 1
110 148 1
110 150 1
110 152 1
110 159 1
110 160 2
110 162 1
110 163 2
110 165 2
110 171 1
110 173 1
110 174 6
110 175 1
110 176 1
110 178 3
110 180 2
110 181 1
110 187 2
110 188 1
110 190 3
110 194 2
110 200 1
111 3 3
111 5 2
111 6 1
111 8 1
111 11 1
111 16 1
111 19 1
111 20 1
111 21 1
111 22 2
111 23 1
111 24 3
111 25 2
111 27 4
111 31 1
111 33 6
111 34 2
111 37 2
111 38 4
111 39 1
111 41 1
111 45 3
111 48 1
111 49 1
111 51 3
111 52 6
111 53 2
111 54 2
111 56 1
111 57 1
111 59 1
111 60 1
111 61 1
111 62 5
111 66 5
111 67 2
111 68 6
111 69 1
111 72 1
111 73 1
111 74 4
111 76 5
111 79 3
111 81 6
111 82 3
111 84 1
111 85 1
111 87 1
111 93 1
111 97 2
111 98 2
111 99 1
111 100 1
111 109 1
111 110 1
111 112 1
111 113 1
111 114 2
111 117 1
111 118 1
111 120 1
111 121 6
111 128 1
111 133 1
111 135 2
111 136 1
111 137 1
111 140 1
111 141 3
111 142 10
111 146 2
111 147 1
111 149 2
111 150 1
111 154 1
111 162 1
111 166 1
111 167 2
111 169 1
111 171 1
111 172 1
111 174 4
111 175 1
111 177 1
111 178 10
111 180 1
111 181 2
111 183 1
111 184 1
111 185 1
111 192 1
111 196 1
111 198 1
111 200 2
112 1 1
112 2 2
112 3 2
112 4 7
112 5 6
112 6 4
112 10 7
112 11 2
112 12 4
112 16 9
112 17 6
112 18 1
112 19 7
112 20 1
112 21 6
112 23 2
112 25 2
112 27 1
112 28 1
112 29 3
112 35 2
112 36 5
112 37 9
112 39 4
112 40 2
112 42 2
112 44 7
112 48 2
112 49 2
112 50 9
112 51 2
112 57 7
112 58 1
112 59 7
112 60 8
112 61 1
112 63 2
112 64 2
112 65 7
112 67 2
112 69 4
112 70 3
112 71 5
112 72 8
112 73 3
112 74 1
112 75 1
112 78 1
112 79 12
112 80 1
112 82 1
112 83 2
112 84 4
112 85 3
112 86 1
112 87 6
112 89 1
112 90 5
112 92 1
112 93 10
112 94 6
112 95 8
112 96 5
112 100 2
112 102 2
112 103 1
112 105 3
112 106 6
112 108 3
112 113 4
112 117 11
112 118 3
112 120 6
112 123 8
112 124 2
112 125 3
112 130 2
112 131 1
112 132 1
112 133 7
112 134 3
112 136 8
112 137 4
112 139 1
112 142 2
112 143 9
112 145 6
112 146 1
112 150 7
112 151 7
112 152 1
112 154 1
112 155 4
112 156 7
112 161 5
112 163 2
112 165 4
112 169 2
112 170 5
112 172 4
112 173 10
112 175 1
112 177 4
112 180 8
112 181 5
112 182 1
112 185 1
112 186 1
112 187 9
112 188 1
112 190 1
112 191 1
112 192 2
112 193 1
112 194 6
112 196 6
113 2 6
113 4 3
113 5 3
113 6 10
113 7 2
113 10 7
113 11 1
113 12 5
113 14 2
113 16 7
113 17 6
113 18 3
113 19 3
113 20 1
113 21 9
113 22 1
113 26 1
113 28 3
113 30 1
113 35 1
113 36 6
113 37 10
113 39 5
113 42 2
113 43 2
113 44 8
113 45 1
113 48 2
113 50 1
113 51 2
113 53 5
113 57 5
113 58 1
113 59 5
113 60 13
113 62 1
113 63 4
113 65 4
113 67 6
113 68 1
113 69 5
113 71 5
113 72 4
113 73 10
113 79 4
113 80 1
113 81 1
113 84 6
113 85 7
113 87 7
113 88 1
113 90 9
113 92 7
113 93 5
113 94 7
113 95 4
113 96 11
113 97 2
113 104 1
113 105 5
113 106 9
113 107 1
113 108 13
113 109 1
113 113 5
113 115 1
113 117 14
113 118 10
113 120 6
113 123 4
113 124 1
113 125 7
113 129 1
113 130 3
113 132 1
113 133 9
113 134 3
113 136 8
113 137 9
113 138 1
113 143 8
113 144 1
113 145 10
113 147 3
113 148 1
113 150 6
113 151 14
113 152 1
113 153 2
113 154 1
113 155 8
113 156 4
113 158 1
113 161 6
113 162 1
113 163 11
113 165 1
113 167 1
113 169 1
113 170 5
113 172 6
113 173 3
113 177 6
113 179 1
113 180 6
113 181 5
113 182 2
113 183 1
113 184 3
113 185 1
113 186 1
113 187 8
113 188 1
113 190 1
113 194 6
113 195 1
113 196 8
113 197 1
113 198 1
113 200 1
114 1 1
114 2 6
114 3 4
114 4 7
114 5 3
114 6 6
114 8 1
114 9 1
114 10 4
114 12 6
114 14 1
114 15 1
114 16 12
114 17 5
114 19 2
114 21 10
114 28 8
114 31 1
114 33 1
114 36 4
114 37 5
114 39 9
114 42 4
114 43 1
114 44 7
114 46 2
114 48 2
114 49 1
114 50 4
114 54 1
114 56 1
114 57 5
114 59 4
114 60 7
114 63 9
114 65 5
114 66 1
114 67 6
114 68 2
114 69 2
114 71 2
114 72 6
114 73 5
114 76 1
114 79 8
114 80 1
114 81 1
114 83 2
114 84 7
114 85 5
114 87 6
114 89 2
114 90 8
114 92 2
114 93 6
114 94 7
114 95 12
114 96 8
114 98 2
114 99 4
114 104 3
114 105 7
114 106 13
114 108 6
114 109 1
114 110 1
114 113 7
114 114 1
114 115 1
114 117 5
114 118 4
114 120 6
114 121 2
114 123 6
114 125 3
114 126 2
114 127 1
114 130 1
114 131 1
114 133 5
114 134 6
114 136 3
114 137 4
114 138 1
114 143 1
114 145 5
114 146 1
114 147 1
114 150 6
114 151 7
114 152 1
114 155 5
114 156 11
114 157 1
114 160 2
114 161 5
114 162 1
114 163 4
114 165 1
114 166 1
114 167 2
114 168 1
114 169 1
114 170 2
114 171 2
114 172 6
114 173 11
114 174 1
114 177 8
114 178 1
114 180 9
114 181 6
114 185 1
114 186 1
114 187 5
114 194 8
114 196 7
114 198 1
114 199 1
114 200 1
115 2 2
115 3 1
115 4 3
115 5 2
115 6 4
115 7 2
115 10 3
115 12 5
115 13 3
115 16 5
115 17 7
115 19 5
115 21 11
115 27 1
115 28 10
115 30 1
115 33 1
115 36 6
115 37 8
115 39 9
115 42 5
115 44 9
115 45 1
115 48 1
115 50 5
115 52 1
115 53 1
115 56 3
115 57 5
115 59 11
115 60 2
115 63 3
115 65 7
115 66 1
115 67 5
115 69 4
115 70 1
115 71 7
115 72 6
115 73 4
115 77 1
115 79 6
115 84 1
115 85 8
115 86 1
115 87 10
115 89 1
115 90 4
115 92 6
115 93 5
115 94 8
115 95 10
115 96 5
115 99 1
115 100 2
115 102 1
115 103 1
115 105 2
115 106 5
115 107 1
115 108 4
115 110 1
115 111 1
115 112 1
115 113 5
115 114 1
115 116 1
115 117 8
115 118 6
115 120 4
115 123 11
115 125 7
115 126 2
115 129 2
115 130 1
115 131 1
115 133 7
115 134 8
115 135 2
115 136 11
115 137 4
115 139 2
115 141 1
115 142 2
115 143 5
115 145 4
115 150 8
115 151 8
115 152 1
115 153 1
115 155 6
115 156 3
115 157 1
115 160 1
115 161 10
115 162 2
115 163 2
115 164 1
115 165 1
115 166 2
115 170 5
115 172 8
115 173 6
115 175 1
115 177 6
115 179 1
115 180 5
115 181 9
115 184 1
115 186 3
115 187 7
115 188 1
115 194 7
115 196 6
115 198 2
116 2 1
116 4 2
116 5 5
116 6 6
116 10 7
116 11 1
116 12 11
116 14 1
116 15 1
116 16 7
116 17 5
116 19 7
116 21 6
116 22 3
116 24 3
116 28 7
116 31 4
116 32 2
116 33 1
116 36 8
116 37 1
116 38 1
116 39 7
116 40 2
116 41 1
116 42 1
116 43 1
116 44 3
116 45 1
116 48 1
116 50 6
116 51 2
116 52 1
116 55 1
116 56 1
116 57 6
116 58 1
116 59 7
116 60 6
116 61 3
116 63 7
116 65 4
116 66 1
116 67 7
116 69 7
116 71 6
116 72 9
116 73 6
116 74 1
116 77 4
116 79 5
116 81 1
116 84 4
116 85 9
116 86 1
116 87 6
116 90 5
116 92 5
116 93 8
116 94 7
116 95 7
116 96 8
116 100 2
116 103 2
116 105 12
116 106 5
116 108 3
116 109 1
116 112 1
116 113 8
116 114 1
116 117 5
116 120 4
116 121 1
116 122 1
116 123 5
116 125 3
116 126 1
116 129 1
116 133 8
116 134 5
116 135 1
116 136 3
116 137 3
116 139 1
116 140 1
116 141 2
116 143 6
116 144 1
116 145 8
116 150 7
116 151 8
116 152 1
116 154 1
116 155 10
116 156 9
116 157 1
116 158 1
116 159 1
116 161 8
116 163 9
116 170 5
116 172 4
116 173 6
116 177 4
116 180 6
116 181 6
116 183 3
116 185 1
116 187 7
116 188 1
116 191 1
116 194 5
116 196 8
116 197 1
116 200 2
117 1 4
117 7 6
117 10 1
117 11 4
117 13 7
117 14 3
117 15 1
117 20 1
117 22 1
117 26 4
117 27 2
117 29 6
117 30 6
117 31 6
117 32 1
117 34 5
117 40 5
117 41 5
117 43 4
117 44 1
117 45 1
117 46 4
117 47 8
117 48 6
117 49 4
117 51 6
117 53 4
117 54 12
117 55 5
117 56 4
117 61 7
117 63 3
117 64 3
117 65 2
117 67 1
117 68 1
117 70 3
117 72 2
117 73 1
117 75 8
117 77 2
117 79 2
117 80 9
117 83 6
117 84 2
117 85 1
117 86 5
117 88 9
117 89 6
117 90 1
117 91 2
117 95 1
117 97 5
117 98 9
117 99 2
117 100 8
117 101 6
117 102 10
117 103 9
117 105 1
117 108 1
117 109 1
117 111 1
117 112 4
117 114 2
117 115 2
117 116 1
117 118 1
117 119 4
117 123 1
117 124 6
117 125 2
117 126 2
117 127 5
117 128 8
117 129 5
117 130 1
117 131 8
117 132 4
117 135 1
117 139 5
117 146 5
117 147 2
117 148 1
117 149 3
117 151 2
117 152 5
117 154 3
117 155 1
117 156 2
117 157 8
117 159 4
117 160 4
117 162 4
117 164 6
117 165 1
117 166 4
117 167 2
117 168 8
117 169 4
117 170 2
117 171 2
117 173 1
117 175 3
117 176 8
117 178 1
117 179 4
117 183 1
117 184 1
117 185 4
117 188 7
117 189 4
117 190 7
117 191 3
117 192 6
117 193 8
117 196 1
117 197 5
117 198 2
117 199 10
117 200 8
118 1 7
118 7 10
118 8 2
118 11 5
118 13 6
118 14 3
118 18 1
118 20 6
118 21 2
118 25 4
118 26 7
118 28 2
118 29 2
118 30 3
118 31 3
118 33 2
118 34 6
118 37 1
118 39 1
118 40 1
118 41 6
118 42 2
118 43 4
118 45 1
118 46 5
118 47 6
118 48 5
118 50 1
118 51 3
118 53 5
118 54 5
118 55 6
118 56 3
118 59 1
118 61 2
118 64 5
118 66 1
118 68 2
118 70 6
118 73 1
118 75 3
118 76 2
118 77 7
118 79 2
118 80 7
118 81 1
118 82 1
118 83 6
118 84 1
118 86 6
118 87 1
118 88 8
118 89 7
118 90 1
118 91 11
118 97 5
118 98 10
118 99 8
118 100 4
118 101 11
118 102 11
118 103 3
118 105 1
118 107 2
118 111 2
118 112 5
118 114 7
118 115 7
118 116 1
118 117 1
118 119 5
118 124 11
118 125 1
118 126 5
118 127 6
118 128 4
118 129 9
118 131 7
118 132 6
118 136 1
118 137 1
118 139 2
118 140 1
118 141 3
118 142 2
118 143 1
118 146 6
118 148 2
118 149 1
118 150 1
118 152 5
118 153 2
118 154 6
118 156 1
118 157 2
118 159 4
118 160 6
118 161 2
118 162 4
118 163 2
118 164 1
118 166 10
118 168 3
118 169 6
118 170 3
118 171 1
118 172 2
118 175 4
118 176 3
118 177 1
118 178 1
118 179 5
118 181 2
118 182 1
118 183 8
118 185 2
118 188 3
118 189 6
118 190 2
118 191 4
118 192 4
118 193 4
118 195 1
118 197 6
118 199 7
118 200 9
119 1 1
119 2 4
119 3 1
119 4 6
119 5 5
119 6 6
119 10 4
119 12 4
119 13 1
119 15 1
119 16 3
119 17 7
119 18 1
119 19 6
119 20 2
119 21 1
119 22 1
119 24 1
119 25 1
119 26 6
119 28 6
119 29 1
119 31 1
119 33 1
119 34 2
119 35 2
119 36 8
119 37 3
119 38 2
119 39 7
119 40 1
119 42 6
119 44 7
119 47 2
119 49 2
119 50 7
119 52 1
119 54 2
119 55 1
119 57 4
119 58 1
119 59 7
119 60 5
119 63 7
119 65 2
119 66 2
119 67 7
119 69 7
119 71 6
119 72 3
119 73 9
119 75 1
119 77 1
119 79 2
119 81 1
119 82 1
119 84 9
119 85 5
119 87 6
119 89 1
119 90 3
119 91 2
119 92 2
119 93 11
119 94 7
119 95 9
119 96 5
119 98 1
119 105 9
119 106 4
119 107 1
119 108 8
119 113 12
119 115 2
119 117 4
119 118 12
119 120 13
119 122 1
119 123 6
119 124 2
119 125 5
119 126 1
119 129 1
119 130 1
119 132 1
119 133 10
119 134 6
119 136 5
119 137 2
119 138 1
119 139 1
119 140 1
119 141 1
119 143 5
119 144 1
119 145 2
119 146 1
119 148 1
119 150 6
119 151 4
119 155 7
119 156 8
119 157 1
119 159 3
119 161 5
119 162 1
119 163 8
119 165 2
119 167 1
119 168 1
119 170 2
119 171 1
119 172 3
119 173 4
119 177 4
119 179 1
119 180 5
119 181 5
119 182 1
119 183 1
119 185 1
119 186 1
119 187 1
119 191 1
119 192 2
119 194 4
119 196 5
119 199 2
120 1 5
120 2 1
120 3 1
120 4 1
120 5 1
120 7 6
120 8 1
120 11 4
120 12 2
120 13 11
120 14 8
120 16 1
120 17 1
120 18 1
120 20 5
120 23 1
120 25 5
120 26 3
120 27 1
120 29 6
120 30 4
120 31 11
120 32 1
120 34 1
120 35 1
120 36 2
120 40 4
120 41 6
120 42 1
120 43 5
120 44 2
120 46 7
120 47 7
120 48 3
120 49 4
120 50 1
120 51 7
120 53 6
120 54 6
120 55 7
120 56 5
120 58 1
120 60 3
120 61 5
120 62 1
120 64 8
120 65 1
120 66 2
120 67 1
120 68 2
120 69 1
120 70 5
120 73 1
120 75 2
120 77 4
120 79 1
120 80 3
120 82 1
120 83 3
120 84 1
120 85 2
120 86 4
120 87 1
120 88 6
120 89 6
120 91 8
120 94 1
120 95 1
120 96 1
120 97 5
120 98 6
120 99 7
120 100 3
120 101 5
120 102 6
120 103 3
120 105 2
120 107 1
120 109 2
120 112 3
120 114 7
120 115 5
120 117 1
120 118 1
120 119 5
120 121 1
120 124 13
120 126 6
120 127 1
120 128 9
120 129 6
120 130 1
120 131 7
120 132 10
120 136 1
120 138 3
120 139 3
120 144 1
120 145 1
120 146 3
120 149 8
120 152 6
120 154 8
120 157 5
120 158 1
120 159 5
120 160 4
120 162 9
120 163 2
120 164 9
120 166 11
120 167 1
120 168 5
120 169 1
120 172 3
120 174 1
120 175 6
120 176 3
120 179 4
120 181 1
120 183 4
120 185 4
120 187 1
120 188 6
120 189 4
120 190 4
120 191 5
120 192 5
120 193 6
120 194 1
120 195 3
120 196 1
120 197 6
120 198 2
120 199 4
120 200 2
121 1 1
121 2 7
121 4 6
121 5 8
121 6 4
121 9 1
121 10 6
121 12 3
121 14 1
121 15 2
121 16 10
121 17 8
121 19 7
121 20 2
121 21 9
121 23 3
121 27 2
121 28 5
121 29 1
121 34 1
121 36 9
121 37 8
121 39 5
121 40 1
121 41 1
121 42 1
121 44 6
121 50 8
121 51 1
121 52 1
121 54 3
121 56 1
121 57 3
121 59 8
121 60 8
121 61 2
121 62 1
121 63 5
121 65 4
121 66 1
121 67 6
121 68 1
121 69 4
121 71 1
121 72 5
121 73 9
121 74 1
121 75 2
121 76 2
121 77 1
121 78 5
121 79 4
121 84 2
121 85 5
121 87 7
121 90 3
121 92 4
121 93 5
121 94 12
121 95 8
121 96 7
121 97 1
121 98 1
121 101 1
121 102 1
121 105 11
121 106 7
121 108 7
121 112 2
121 113 3
121 117 7
121 118 5
121 120 7
121 123 7
121 124 1
121 125 5
121 129 2
121 130 1
121 132 2
121 133 9
121 136 8
121 137 7
121 143 6
121 145 7
121 150 5
121 151 7
121 153 1
121 155 9
121 156 6
121 157 3
121 158 2
121 161 5
121 162 1
121 163 4
121 166 2
121 167 2
121 170 4
121 172 5
121 173 7
121 174 1
121 177 3
121 178 2
121 180 6
121 181 5
121 182 2
121 186 1
121 187 5
121 188 2
121 190 1
121 191 1
121 193 1
121 194 6
121 195 3
121 196 4
121 200 1
122 2 1
122 3 5
122 4 2
122 5 1
122 6 1
122 7 2
122 8 3
122 15 2
122 17 1
122 21 3
122 24 10
122 27 2
122 29 1
122 32 2
122 33 6
122 35 1
122 36 1
122 38 9
122 39 1
122 41 3
122 47 1
122 49 2
122 51 2
122 52 6
122 53 1
122 61 2
122 62 7
122 66 6
122 67 1
122 68 6
122 69 1
122 70 1
122 71 1
122 72 1
122 73 1
122 74 1
122 76 5
122 77 1
122 78 2
122 79 2
122 81 3
122 82 11
122 84 1
122 85 2
122 87 2
122 88 1
122 91 1
122 94 1
122 96 1
122 97 2
122 99 1
122 102 2
122 104 1
122 105 3
122 110 4
122 112 1
122 113 1
122 114 1
122 115 1
122 116 1
122 117 1
122 118 2
122 120 1
122 121 2
122 122 1
122 123 1
122 125 1
122 131 1
122 133 2
122 135 1
122 136 2
122 138 1
122 139 1
122 140 7
122 141 8
122 142 3
122 144 1
122 145 1
122 149 1
122 151 1
122 152 1
122 156 1
122 157 2
122 161 1
122 166 1
122 168 1
122 171 1
122 173 1
122 174 5
122 175 1
122 176 1
122 177 1
122 178 8
122 180 1
122 182 1
122 184 1
122 193 3
122 194 1
122 197 1
122 199 1
123 1 2
123 2 4
123 3 6
123 4 1
123 5 1
123 7 1
123 8 1
123 9 1
123 11 1
123 12 1
123 14 1
123 15 3
123 20 1
123 21 1
123 22 3
123 24 4
123 26 1
123 28 2
123 29 2
123 30 1
123 31 1
123 33 3
123 36 1
123 37 1
123 38 9
123 39 2
123 41 2
123 45 2
123 47 2
123 49 1
123 52 5
123 57 2
123 62 9
123 66 6
123 67 2
123 68 6
123 69 1
123 70 2
123 73 2
123 74 4
123 75 1
123 76 6
123 79 1
123 81 7
123 82 6
123 90 1
123 95 1
123 97 2
123 98 1
123 99 1
123 101 3
123 102 1
123 110 7
123 112 1
123 113 2
123 114 1
123 115 3
123 117 1
123 120 1
123 121 4
123 124 1
123 125 2
123 133 1
123 134 2
123 135 1
123 137 2
123 140 6
123 141 3
123 142 8
123 143 1
123 144 1
123 152 1
123 159 2
123 161 1
123 163 2
123 164 2
123 165 3
123 167 1
123 173 1
123 174 6
123 178 1
123 180 1
123 181 1
123 182 1
123 184 1
123 185 3
123 187 1
123 188 1
123 189 3
123 193 2
123 194 1
123 197 1
123 199 1
124 1 1
124 2 1
124 3 6
124 4 1
124 5 2
124 6 1
124 9 1
124 10 1
124 17 1
124 22 1
124 23 1
124 24 5
124 27 1
124 30 1
124 33 6
124 34 3
124 35 1
124 36 1
124 38 8
124 44 1
124 50 1
124 52 4
124 56 1
124 57 1
124 59 2
124 61 1
124 62 11
124 64 2
124 66 1
124 68 2
124 69 2
124 72 1
124 74 5
124 76 3
124 79 1
124 80 1
124 81 3
124 82 4
124 84 1
124 86 1
124 87 1
124 90 2
124 91 2
124 93 1
124 94 1
124 96 1
124 99 2
124 101 1
124 102 1
124 104 1
124 105 2
124 107 2
124 110 3
124 113 1
124 114 1
124 115 1
124 117 2
124 119 2
124 120 1
124 121 10
124 124 1
124 129 1
124 132 1
124 133 1
124 137 1
124 138 1
124 140 3
124 141 9
124 142 3
124 144 1
124 145 2
124 147 1
124 148 1
124 149 1
124 152 4
124 154 1
124 156 3
124 161 3
124 162 1
124 163 1
124 165 1
124 166 2
124 169 2
124 172 1
124 174 6
124 176 1
124 178 5
124 179 1
124 182 1
124 184 1
124 186 1
124 190 1
124 192 1
124 194 1
125 18 1
125 28 1
125 39 2
125 43 1
125 67 1
125 89 1
125 106 1
125 113 1
125 136 1
125 137 1
125 192 1
125 200 2
126 5 1
126 9 1
126 24 1
126 57 1
126 76 1
126 96 1
126 101 1
126 106 1
126 114 1
126 115 1
126 117 1
126 148 1
126 165 1
126 174 2
126 198 1
127 9 1
127 20 1
127 50 1
127 56 1
127 76 1
127 111 1
127 118 1
127 125 1
127 145 1
127 160 1
127 184 1
127 185 1
127 188 1
127 197 1
128 12 1
128 18 1
128 39 1
128 42 1
128 45 1
128 79 1
128 90 1
128 94 1
128 124 1
128 158 1
128 183 1
128 184 1
128 193 1
129 5 1
129 22 1
129 33 1
129 45 1
129 48 1
129 60 1
129 71 1
129 83 1
129 100 1
129 112 2
129 127 1
129 139 1
129 140 1
129 176 1
129 179 1
130 2 1
130 3 1
130 4 1
130 6 1
130 9 1
130 21 1
130 46 1
130 54 1
130 63 1
130 67 1
130 69 2
130 83 1
130 98 1
130 110 1
130 117 1
130 149 1
130 172 1
130 173 1
130 181 1
130 188 1
130 189 1
131 4 1
131 7 1
131 37 1
131 39 1
131 41 1
131 52 1
131 57 1
131 62 1
131 111 1
131 116 1
131 180 1
131 185 1
131 193 1
131 197 1
132 24 1
132 35 1
132 46 1
132 63 1
132 69 1
132 75 1
132 83 1
132 99 1
132 104 1
132 120 1
132 125 1
132 129 1
132 147 1
132 148 1
132 150 1
132 159 1
133 27 1
133 41 1
133 42 1
133 52 1
133 65 1
133 76 1
133 78 1
133 90 1
133 96 1
133 97 1
133 139 1
133 143 1
133 148 1
133 173 1
133 196 1
133 198 1
134 13 1
134 19 1
134 23 1
134 25 1
134 39 1
134 58 1
134 65 1
134 86 1
134 89 1
134 96 1
134 114 1
134 147 1
134 163 1
134 166 1
134 169 1
134 195 1
135 25 1
135 51 1
135 52 1
135 64 1
135 113 1
135 129 1
135 137 1
135 149 1
135 151 1
135 159 1
135 169 2
135 182 1
135 183 1
135 185 1
135 190 2
136 2 1
136 9 1
136 13 1
136 15 1
136 20 1
136 44 1
136 53 1
136 54 1
136 75 1
136 76 1
136 88 2
136 91 2
136 100 1
136 135 1
136 149 2
136 159 1
136 182 1
136 195 1
137 11 1
137 13 1
137 26 1
137 35 1
137 38 1
137 41 1
137 46 1
137 53 1
137 71 1
137 83 1
137 84 1
137 118 1
137 171 1
137 179 1
137 191 1
138 25 1
138 34 1
138 44 1
138 78 1
138 82 1
138 95 1
138 125 1
138 129 1
138 136 1
138 144 2
138 190 1
139 22 1
139 26 1
139 30 1
139 52 1
139 56 1
139 64 1
139 67 1
139 90 1
139 100 1
139 107 1
139 181 1
140 8 1
140 9 1
140 50 1
140 56 1
140 71 1
140 80 1
140 90 1
140 92 1
140 106 1
140 118 1
140 122 1
140 123 1
140 127 1
140 135 1
140 164 1
140 167 1
140 174 1
140 192 1
141 16 1
141 24 1
141 59 1
141 63 1
141 73 1
141 161 1
141 166 1
141 186 1
141 187 1
141 191 1
142 32 1
142 50 2
142 91 1
142 98 1
142 107 1
142 110 1
142 118 1
142 130 1
142 136 1
142 160 1
142 163 1
142 173 1
142 180 1
142 181 1
143 7 1
143 23 1
143 40 1
143 80 1
143 83 1
143 91 1
143 96 1
143 117 2
143 177 1
144 21 1
144 42 1
144 51 1
144 56 1
144 59 2
144 62 2
144 64 1
144 69 1
144 80 1
144 86 1
144 87 1
144 91 1
144 109 1
144 120 1
144 171 1
144 185 1
144 190 2
144 198 2
144 200 1
145 18 1
145 41 1
145 43 1
145 59 1
145 60 1
145 63 1
145 70 1
145 99 1
145 120 1
145 124 1
145 137 1
145 143 1
145 148 1
145 179 1
145 200 1
146 11 1
146 24 1
146 27 1
146 29 1
146 51 1
146 68 1
146 99 1
146 127 1
146 162 1
146 163 1
146 167 1
146 168 1
146 178 1
146 179 1
146 180 1
146 197 1
146 199 1
147 5 1
147 13 1
147 35 1
147 45 1
147 63 1
147 80 1
147 91 1
147 95 1
147 127 1
147 133 1
147 139 1
147 145 2
147 147 1
147 148 1
147 160 1
147 198 1
147 200 1
148 2 2
148 18 1
148 20 1
148 24 1
148 38 1
148 46 1
148 80 1
148 82 1
148 91 1
148 106 1
148 110 1
148 128 1
148 151 1
148 161 1
148 163 1
149 17 1
149 63 1
149 94 1
149 97 2
149 100 1
149 115 1
149 121 1
149 134 1
149 156 1
149 160 1
149 164 1
150 15 1
150 46 1
150 56 1
150 63 1
150 70 1
150 77 1
150 98 1
150 138 1
150 169 1
150 171 1
150 173 1
150 178 1
150 191 1
150 198 1
151 26 1
151 39 1
151 40 1
151 49 1
151 53 1
151 56 1
151 75 1
151 90 1
151 102 1
151 112 1
151 128 1
151 150 1
151 153 1
151 161 1
151 178 2
152 5 1
152 8 1
152 9 1
152 28 1
152 29 1
152 48 1
152 59 1
152 65 1
152 69 1
152 82 1
152 110 1
152 120 1
152 121 1
152 139 1
152 149 1
152 162 1
152 176 1
153 2 1
153 3 1
153 27 1
153 29 1
153 39 1
153 59 1
153 73 1
153 108 1
153 180 1
153 187 1
154 12 1
154 34 1
154 36 1
154 69 1
154 71 1
154 76 1
154 80 1
154 88 1
154 125 1
154 126 1
154 141 1
154 149 1
154 160 1
154 166 1
155 4 1
155 5 1
155 21 1
155 28 1
155 57 1
155 63 1
155 70 1
155 71 1
155 85 1
155 102 1
155 108 1
155 116 1
155 161 2
155 190 1
155 197 1
156 17 1
156 40 1
156 50 1
156 58 1
156 68 1
156 71 1
156 75 1
156 84 1
156 88 1
156 109 1
156 113 2
156 134 2
156 135 1
156 140 1
156 151 1
156 169 1
156 197 1
157 15 1
157 34 1
157 57 1
157 80 1
157 87 1
157 95 1
157 101 1
157 104 1
157 118 1
157 135 1
157 138 1
157 163 1
158 8 1
158 36 1
158 43 1
158 92 1
158 96 2
158 115 1
158 120 1
158 123 1
158 135 2
158 140 1
158 144 1
158 154 1
158 194 1
159 9 2
159 19 1
159 42 1
159 60 1
159 122 1
159 137 1
159 143 2
159 151 1
159 152 1
159 156 1
159 164 1
159 192 1
159 196 1
160 19 1
160 21 1
160 37 1
160 46 1
160 56 1
160 92 1
160 112 1
160 127 1
160 128 1
160 141 1
160 143 1
160 149 1
160 156 1
160 160 1
160 169 1
160 171 1
161 3 1
161 4 1
161 24 1
161 37 2
161 50 1
161 56 1
161 84 2
161 93 1
161 111 1
161 113 1
161 114 1
161 130 1
161 139 1
161 171 1
161 188 1
161 191 1
161 195 1
162 6 1
162 58 1
162 64 1
162 76 1
162 83 1
162 87 1
162 95 1
162 102 1
162 111 1
162 129 1
162 132 1
162 138 1
162 153 1
162 164 1
162 180 1
162 198 1
163 1 1
163 63 1
163 75 2
163 83 1
163 100 1
163 118 1
163 133 1
163 157 1
163 159 1
163 170 1
163 174 1
163 177 1
163 179 1
163 189 1
164 12 1
164 27 1
164 33 1
164 39 1
164 52 2
164 61 1
164 88 1
164 105 1
164 106 1
164 110 1
164 120 1
164 137 1
164 142 1
164 162 1
164 174 1
164 179 1
164 184 1
164 185 2
165 3 1
165 10 1
165 36 2
165 43 1
165 75 1
165 83 1
165 107 1
165 121 1
165 125 1
165 143 1
165 161 1
165 188 1
165 197 1
165 199 1
166 1 2
166 8 1
166 21 2
166 60 1
166 87 2
166 100 1
166 108 1
166 123 1
166 148 1
166 188 1
166 197 1
167 1 1
167 8 1
167 16 1
167 18 1
167 19 1
167 20 1
167 32 2
167 64 1
167 77 1
167 83 1
167 89 1
167 93 1
167 103 1
167 113 1
167 131 1
167 136 1
167 158 1
167 170 1
167 193 1
168 1 1
168 9 1
168 11 1
168 14 1
168 21 1
168 29 1
168 39 1
168 55 1
168 56 1
168 58 1
168 65 1
168 66 1
168 70 1
168 78 1
168 95 1
168 111 1
168 144 1
168 153 1
168 163 1
168 196 1
168 197 1
169 26 1
169 50 1
169 51 1
169 64 1
169 78 2
169 89 1
169 93 1
169 119 1
169 178 1
169 179 1
169 184 1
169 198 1
169 199 1
169 200 1
170 31 1
170 32 1
170 33 1
170 48 1
170 115 1
170 144 1
170 151 1
170 163 1
170 174 1
170 180 1
170 192 1
171 19 1
171 29 1
171 35 1
171 40 1
171 52 1
171 65 1
171 66 1
171 79 1
171 112 1
171 132 2
171 167 2
171 185 1
171 195 1
172 13 1
172 35 1
172 42 1
172 67 1
172 82 1
172 103 1
172 105 1
172 121 1
172 126 1
172 174 1
172 178 1
172 195 1
173 1 1
173 7 1
173 17 1
173 35 1
173 70 1
173 94 1
173 97 1
173 98 1
173 99 1
173 100 1
173 110 1
173 113 1
173 118 1
173 131 1
173 136 2
173 150 1
173 158 1
173 175 1
173 191 1
174 5 1
174 8 1
174 21 2
174 32 2
174 54 1
174 57 1
174 58 1
174 62 2
174 88 1
174 89 1
174 100 1
174 103 2
174 110 1
174 127 1
174 142 1
174 154 1
174 175 1
174 185 1
174 190 2
174 193 1
175 1 1
175 57 1
175 62 1
175 94 1
175 98 2
175 100 1
175 107 1
175 108 1
175 116 1
175 140 2
175 152 1
176 3 1
176 8 1
176 18 1
176 35 1
176 41 1
176 58 1
176 77 1
176 110 1
176 125 1
176 127 1
176 159 1
176 168 2
176 177 1
176 182 1
176 191 1
177 4 1
177 28 1
177 66 1
177 88 1
177 92 1
177 93 1
177 109 1
177 121 1
177 130 1
177 131 1
177 132 3
177 142 1
177 153 1
177 176 1
178 7 1
178 23 1
178 37 1
178 56 1
178 59 1
178 62 2
178 85 1
178 115 1
178 134 1
178 141 1
178 158 1
178 184 1
179 5 1
179 8 1
179 9 1
179 25 1
179 27 2
179 33 1
179 34 1
179 38 1
179 67 1
179 77 1
179 78 1
179 92 1
179 97 1
179 104 1
179 122 1
179 138 1
179 139 1
179 173 1
180 5 1
180 20 1
180 41 1
180 46 1
180 48 2
180 58 1
180 83 1
180 97 2
180 113 1
180 114 1
180 126 1
180 151 1
180 156 1
180 157 1
180 171 1
180 197 1
181 6 1
181 10 1
181 12 1
181 21 1
181 46 1
181 51 1
181 57 1
181 61 1
181 76 1
181 99 1
181 104 1
181 115 1
181 126 1
181 151 1
181 170 1
181 173 1
182 22 1
182 24 1
182 28 1
182 31 1
182 86 1
182 89 1
182 110 1
182 132 1
182 138 1
182 157 1
182 158 1
182 171 1
182 188 1
182 194 1
182 200 2
183 4 1
183 24 1
183 49 1
183 83 1
183 102 1
183 104 1
183 108 1
183 126 1
183 195 1
184 2 1
184 9 1
184 14 1
184 18 1
184 46 1
184 52 1
184 58 1
184 65 1
184 75 2
184 89 1
184 108 1
184 112 1
184 119 1
184 129 2
184 148 1
184 160 1
184 177 1
184 189 1
185 8 2
185 15 1
185 26 1
185 41 1
185 70 1
185 80 1
185 103 1
185 112 1
185 139 1
185 144 1
185 150 1
185 170 1
185 186 1
186 69 1
186 70 1
186 76 1
186 107 1
186 111 1
186 122 1
186 128 1
187 21 1
187 41 1
187 51 1
187 54 1
187 55 1
187 56 2
187 58 1
187 60 1
187 61 1
187 70 3
187 82 1
187 87 1
187 131 1
187 135 1
187 154 1
187 173 1
187 181 2
187 193 1
188 11 1
188 53 1
188 64 1
188 85 1
188 97 1
188 165 2
188 180 1
188 200 1
189 29 1
189 53 1
189 62 1
189 69 1
189 104 1
189 123 1
189 136 1
189 155 1
189 161 1
189 164 1
189 183 1
189 199 1
190 23 1
190 39 1
190 60 1
190 65 1
190 71 2
190 88 1
190 132 1
190 137 1
190 162 1
190 167 1
190 177 1
190 178 1
190 185 1
190 186 1
191 25 1
191 44 1
191 65 1
191 96 1
191 102 1
191 112 1
191 131 1
191 154 1
191 155 1
191 163 1
191 185 1
191 194 1
192 17 1
192 39 1
192 45 2
192 63 1
192 68 1
192 85 1
192 86 1
192 90 1
192 97 1
192 107 1
192 132 1
192 170 1
192 171 1
192 173 1
192 192 1
193 44 1
193 45 2
193 59 1
193 68 1
193 69 1
193 84 2
193 85 1
193 92 1
193 93 1
193 94 1
193 97 1
193 103 1
193 121 2
193 127 1
193 138 1
193 162 1
193 183 1
194 5 1
194 23 1
194 25 1
194 36 1
194 54 1
194 58 1
194 59 1
194 73 1
194 79 1
194 86 1
194 115 1
194 148 1
194 153 1
194 191 1
194 193 1
194 196 1
195 2 1
195 11 1
195 14 1
195 21 1
195 24 1
195 77 1
195 79 1
195 92 1
195 100 1
195 109 1
195 135 1
195 140 1
195 143 1
195 147 1
195 158 1
195 197 1
196 4 1
196 23 1
196 40 1
196 82 1
196 101 1
196 127 1
196 135 2
196 160 1
196 180 2
196 192 1
197 71 1
197 78 1
197 82 1
197 95 1
197 105 1
197 109 1
197 126 1
197 138 1
197 172 1
197 184 1
198 3 1
198 8 1
198 15 1
198 24 1
198 64 1
198 82 1
198 92 1
198 116 1
198 117 1
198 121 1
198 122 1
198 131 1
198 137 1
198 145 1
198 146 1
198 150 1
198 153 1
198 156 1
198 177 1
198 179 2
198 192 1
199 9 1
199 50 1
199 59 1
199 73 1
199 85 1
199 88 1
199 101 1
199 128 2
199 129 1
199 135 1
199 141 1
199 170 1
199 190 1
200 1 1
200 3 1
200 43 1
200 74 1
200 82 1
200 102 1
200 113 1
200 139 2
200 156 1
200 158 1
200 172 1
200 186 1
200 189 1
200 190 1
201 7 2
201 43 3
201 79 1
201 114 1
201 120 1
201 156 1
201 174 1
201 190 1
202 36 1
202 38 2
202 44 1
202 71 1
202 97 1
202 100 1
202 105 1
202 122 1
202 142 1
202 147 1
202 155 1
202 198 1
202 200 1
203 2 2
203 12 1
203 19 1
203 25 1
203 53 1
203 61 2
203 100 1
203 133 1
203 146 1
203 163 1
203 182 1
203 194 1
204 1 1
204 8 1
204 16 1
204 19 1
204 22 1
204 25 1
204 42 1
204 67 1
204 79 2
204 87 1
204 123 1
204 142 1
204 151 1
204 160 1
204 191 1
204 193 1
204 195 1
205 2 1
205 39 1
205 41 1
205 77 1
205 97 2
205 99 1
205 110 1
205 113 1
205 130 1
205 166 1
205 180 1
205 193 1
206 18 1
206 30 1
206 43 1
206 58 1
206 60 1
206 66 1
206 94 1
206 117 1
206 131 1
206 132 1
206 137 1
206 165 1
206 168 1
206 170 1
206 173 1
206 182 1
206 184 1
207 5 1
207 47 1
207 69 1
207 77 1
207 86 1
207 98 1
207 113 1
207 115 1
207 116 1
207 163 1
207 199 1
207 200 1
208 9 1
208 18 2
208 20 1
208 57 1
208 118 1
208 122 1
208 139 1
208 149 1
208 171 1
208 180 1
209 9 1
209 45 1
209 67 1
209 108 1
209 111 1
209 112 1
209 131 1
209 137 1
209 146 1
209 160 1
209 165 3
209 173 1
209 190 1
210 3 1
210 5 1
210 9 1
210 27 1
210 46 2
210 85 1
210 89 1
210 98 1
210 101 1
210 117 1
210 130 1
210 139 1
210 162 1
210 165 1
210 185 1
210 188 1
210 199 1
211 22 1
211 32 1
211 47 1
211 59 1
211 61 1
211 79 1
211 88 1
211 97 1
211 114 1
211 126 1
211 150 1
211 157 1
211 166 1
212 15 1
212 29 1
212 59 1
212 65 1
212 75 1
212 88 1
212 89 1
212 91 2
212 92 1
212 145 1
212 148 1
212 160 1
212 172 1
213 26 1
213 34 1
213 42 1
213 46 1
213 64 1
213 70 1
213 157 1
213 176 1
213 180 1
214 9 1
214 50 2
214 56 1
214 59 1
214 70 1
214 75 1
214 80 1
214 84 1
214 92 1
214 130 1
214 150 1
214 160 1
214 168 1
214 172 1
214 181 1
215 10 1
215 27 1
215 45 1
215 69 1
215 94 1
215 106 1
215 196 1
216 36 1
216 46 1
216 111 1
216 128 1
216 131 1
216 132 1
216 142 2
216 166 1
216 175 1
216 178 1
216 196 1
217 11 1
217 21 1
217 25 1
217 34 1
217 55 1
217 61 1
217 65 1
217 67 1
217 71 1
217 79 1
217 92 2
217 96 1
217 133 1
217 147 1
217 160 1
217 161 1
217 165 1
217 172 1
217 186 1
218 5 1
218 35 1
218 61 1
218 78 1
218 83 1
218 85 1
218 89 1
218 101 1
218 119 1
218 128 2
218 131 1
218 144 1
218 164 2
218 185 1
218 197 1
219 4 1
219 8 1
219 80 1
219 81 1
219 83 1
219 92 1
219 109 1
219 126 1
219 127 1
219 133 1
219 157 1
219 158 1
219 168 1
219 184 1
219 187 1
219 198 1
220 18 1
220 33 2
220 43 1
220 47 1
220 65 1
220 74 1
220 81 1
220 82 1
220 85 1
220 121 1
220 132 1
220 138 1
220 143 2
220 151 2
220 155 1
220 160 1
220 169 1
220 200 1
221 5 1
221 12 1
221 28 1
221 31 1
221 67 1
221 76 1
221 118 1
221 128 1
221 131 1
221 152 1
221 197 1
221 198 1
221 200 1
222 13 1
222 26 1
222 41 1
222 47 1
222 71 1
222 76 1
222 82 1
222 99 1
222 115 1
222 125 1
222 128 1
222 135 1
222 137 1
222 142 1
222 144 1
222 153 1
222 182 1
223 2 1
223 38 1
223 51 1
223 66 2
223 76 1
223 97 1
223 109 1
223 150 1
223 161 2
223 166 1
223 168 1
224 13 1
224 14 1
224 32 2
224 41 1
224 44 1
224 53 1
224 78 1
224 90 1
224 91 1
224 99 1
224 105 2
224 107 1
224 126 1
224 152 1
224 155 1
224 170 1
224 173 1
225 10 1
225 22 2
225 34 1
225 81 2
225 93 1
225 100 1
225 109 1
225 121 1
225 156 1
225 171 1
225 178 1
225 186 1
225 187 1
225 188 1
225 200 1
226 17 1
226 18 1
226 28 1
226 31 1
226 32 1
226 58 1
226 79 1
226 81 1
226 87 1
226 107 1
226 131 1
226 137 1
226 147 1
226 177 1
226 198 1
226 200 1
227 6 2
227 30 1
227 46 1
227 75 1
227 101 1
227 124 1
227 130 1
227 132 1
227 146 1
227 170 1
227 173 1
227 187 1
227 194 1
228 11 3
228 19 1
228 24 1
228 30 1
228 38 1
228 39 1
228 43 1
228 54 1
228 57 1
228 86 1
228 90 1
228 94 1
228 102 1
228 105 1
228 118 1
228 122 1
228 123 1
228 131 1
228 142 1
228 145 1
228 150 1
228 168 1
228 177 1
228 186 1
228 197 1
229 3 1
229 17 1
229 23 1
229 25 1
229 27 1
229 29 1
229 30 1
229 49 1
229 62 1
229 79 1
229 104 1
229 109 1
229 129 1
229 131 1
229 137 1
229 144 1
229 174 1
230 2 1
230 4 1
230 6 2
230 8 1
230 13 1
230 15 1
230 28 1
230 38 1
230 45 1
230 104 1
230 107 1
230 116 1
230 119 1
230 132 1
230 146 1
230 151 1
230 158 1
230 161 1
230 183 1
230 187 1
230 199 1
231 6 1
231 16 1
231 49 1
231 58 1
231 68 1
231 81 1
231 88 1
231 133 1
231 187 1
232 6 1
232 14 1
232 24 1
232 25 1
232 41 1
232 47 1
232 67 1
232 103 1
232 147 1
232 163 1
232 173 2
232 178 1
232 180 1
232 183 1
233 22 1
233 31 1
233 33 1
233 62 1
233 65 1
233 78 1
233 94 1
233 107 1
233 138 1
233 161 1
233 167 2
233 173 1
233 180 1
234 17 1
234 46 1
234 57 1
234 63 1
234 91 2
234 93 2
234 109 1
234 121 1
234 142 1
234 147 1
234 152 1
234 163 1
234 194 2
235 7 1
235 17 2
235 35 1
235 36 1
235 60 1
235 74 1
235 77 2
235 90 1
235 97 1
235 99 1
235 103 1
235 117 1
235 139 2
235 159 1
235 160 1
235 177 1
235 193 1
235 200 1
236 21 1
236 35 1
236 37 1
236 40 1
236 50 1
236 55 1
236 63 1
236 75 1
236 88 1
236 97 1
236 103 1
236 108 1
236 112 1
236 124 1
236 143 1
236 156 1
236 181 2
236 184 1
237 12 1
237 15 1
237 19 1
237 37 2
237 57 1
237 64 2
237 91 1
237 114 2
237 123 1
237 124 1
237 130 1
237 140 1
237 151 1
237 153 1
237 163 1
237 173 1
237 175 1
237 178 1
237 188 1
237 197 1
238 2 1
238 13 1
238 25 1
238 30 1
238 32 1
238 38 1
238 47 1
238 64 1
238 68 2
238 93 1
238 103 1
238 126 1
238 133 1
238 160 2
238 163 1
238 171 1
238 175 2
239 3 1
239 6 1
239 20 1
239 31 1
239 46 2
239 51 1
239 79 1
239 109 1
239 128 1
239 131 1
239 148 1
239 164 1
239 179 1
239 184 1
239 200 1
240 8 1
240 25 1
240 27 1
240 36 1
240 66 1
240 70 1
240 94 1
240 113 2
240 125 1
240 126 1
240 130 1
240 134 1
240 138 1
240 146 1
240 177 1
240 190 1
241 66 1
241 89 1
241 94 1
241 96 1
241 107 1
241 123 1
241 137 1
241 139 1
241 141 1
241 145 1
241 184 1
242 3 1
242 26 1
242 41 1
242 44 1
242 76 1
242 81 1
242 113 2
242 115 1
242 127 1
242 131 1
242 135 1
242 146 2
242 164 1
242 176 1
242 181 1
242 187 1
243 25 1
243 37 1
243 39 1
243 69 1
243 78 1
243 97 1
243 111 1
243 160 1
243 164 1
243 177 1
243 194 1
244 52 1
244 80 1
244 89 1
244 100 1
244 112 1
244 126 1
244 135 1
244 137 1
244 144 1
244 150 1
244 151 1
244 160 1
244 162 1
244 193 1
245 11 1
245 21 1
245 32 1
245 48 1
245 69 2
245 74 1
245 76 1
245 79 1
245 89 1
245 112 1
245 145 1
246 1 1
246 3 1
246 20 1
246 49 1
246 125 1
246 139 1
246 177 1
246 183 1
246 187 1
247 55 1
247 61 1
247 86 1
247 87 1
247 105 1
247 129 1
247 140 1
247 143 1
247 151 2
247 161 1
247 164 1
247 190 1
248 4 1
248 9 1
248 15 1
248 27 1
248 40 1
248 56 1
248 57 1
248 80 1
248 96 1
248 117 1
248 131 1
248 134 2
248 141 1
248 173 1
248 178 2
249 64 2
249 68 1
249 77 1
249 82 1
249 88 1
249 94 1
249 139 1
249 153 1
249 168 1
249 193 1
250 21 3
250 36 3
250 39 1
250 82 1
250 83 1
250 84 1
250 88 1
250 97 1
250 104 1
250 116 1
250 136 1
250 144 1
250 184 1
251 8 1
251 17 1
251 20 1
251 37 1
251 64 1
251 66 1
251 84 1
251 90 1
251 100 2
251 102 1
251 105 1
251 117 1
251 149 1
251 155 1
251 171 1
251 177 2
251 184 1
252 32 2
252 39 1
252 51 1
252 79 1
252 89 1
252 97 1
252 100 1
252 101 1
252 119 1
252 121 1
253 30 1
253 66 1
253 71 1
253 97 1
253 101 1
253 108 1
253 132 1
253 136 1
253 178 1
253 198 1
254 15 1
254 17 1
254 41 1
254 51 1
254 79 1
254 97 1
254 106 1
254 128 1
254 157 1
254 163 1
254 183 1
255 3 1
255 10 1
255 68 2
255 77 1
255 79 1
255 87 1
255 93 1
255 94 1
255 113 1
255 126 1
255 127 1
255 140 1
255 157 1
255 163 1
255 170 2
255 178 1
256 14 1
256 28 1
256 60 1
256 74 1
256 87 1
256 116 1
256 126 1
256 130 1
256 147 1
256 149 1
256 151 1
256 155 1
256 159 1
256 164 1
256 184 1
257 22 2
257 25 1
257 29 1
257 31 1
257 35 1
257 43 1
257 64 1
257 105 1
257 138 1
257 142 1
257 148 1
257 175 2
258 26 1
258 39 1
258 54 1
258 56 1
258 57 1
258 73 1
258 98 1
258 153 1
258 163 1
258 169 1
258 175 1
258 177 1
258 194 1
259 12 1
259 15 1
259 17 1
259 24 1
259 36 1
259 49 1
259 51 1
259 60 1
259 80 2
259 86 1
259 105 1
259 107 1
259 115 1
259 120 1
259 128 1
259 129 2
259 131 1
259 142 1
259 146 1
259 159 1
259 163 1
259 166 1
259 173 1
259 174 1
259 199 1
259 200 2
260 12 1
260 14 1
260 23 1
260 43 1
260 46 1
260 48 1
260 66 1
260 81 1
260 94 1
260 98 2
260 107 1
260 123 1
260 124 1
260 154 1
260 184 1
260 193 2
261 12 1
261 20 1
261 50 1
261 72 1
261 83 1
261 137 1
261 183 1
261 196 1
261 198 1
262 5 2
262 8 1
262 21 1
262 37 1
262 55 1
262 71 3
262 80 1
262 81 1
262 99 1
262 155 1
262 157 1
262 169 1
262 191 1
262 200 1
263 19 1
263 34 1
263 37 1
263 40 2
263 63 2
263 65 1
263 66 1
263 82 1
263 100 1
263 122 1
263 132 1
263 138 1
263 142 1
263 153 1
263 158 1
264 3 1
264 26 1
264 71 1
264 81 1
264 83 1
264 97 1
264 117 1
264 118 1
264 150 1
264 157 3
264 158 1
264 175 1
264 183 1
265 5 1
265 30 1
265 43 1
265 54 1
265 75 1
265 83 1
265 104 1
265 107 1
265 138 1
265 145 1
265 175 1
265 185 1
265 187 1
266 13 1
266 35 1
266 59 1
266 83 2
266 85 1
266 87 1
266 108 1
266 113 1
266 132 1
266 143 1
266 194 1
266 200 1
267 1 2
267 28 1
267 29 2
267 41 1
267 55 1
267 86 1
267 104 1
267 109 1
267 115 1
267 133 1
267 171 1
267 185 1
267 187 1
267 190 1
267 200 1
268 5 1
268 19 1
268 26 1
268 46 1
268 91 1
268 95 1
268 98 1
268 122 1
268 139 1
268 159 1
268 161 1
268 185 1
268 195 2
269 8 1
269 12 1
269 16 2
269 21 1
269 23 1
269 27 1
269 39 2
269 47 1
269 49 1
269 62 1
269 73 1
269 98 1
269 107 1
269 124 1
269 143 2
269 149 1
269 171 1
269 195 1
270 9 1
270 28 1
270 29 1
270 33 1
270 44 1
270 47 1
270 54 1
270 59 1
270 66 1
270 96 1
270 103 1
270 107 2
270 124 1
270 138 1
270 162 1
270 167 1
270 179 1
271 25 1
271 39 1
271 44 1
271 46 1
271 49 1
271 66 1
271 85 1
271 106 1
271 110 1
271 130 1
271 141 1
271 160 1
271 168 1
272 9 1
272 19 1
272 26 2
272 27 1
272 39 1
272 44 1
272 62 1
272 70 1
272 71 1
272 107 1
272 111 1
272 150 1
272 152 1
272 155 1
272 165 1
272 173 2
272 184 2
272 191 1
272 195 1
273 23 1
273 50 1
273 52 1
273 61 1
273 65 1
273 94 1
273 101 1
273 104 1
273 113 2
273 155 1
273 162 1
273 168 1
273 170 2
273 184 1
273 193 1
273 196 1
274 4 1
274 5 1
274 43 1
274 63 1
274 70 1
274 79 1
274 84 1
274 103 1
274 114 1
274 125 1
274 152 1
274 172 1
274 200 1
275 1 1
275 13 1
275 14 1
275 32 1
275 43 1
275 48 1
275 51 1
275 56 2
275 111 1
275 119 1
275 166 1
275 192 1
276 11 1
276 20 1
276 76 1
276 91 1
276 93 1
276 101 1
276 121 2
276 134 1
276 135 1
276 194 1
277 1 1
277 28 1
277 30 1
277 54 1
277 63 1
277 64 1
277 65 2
277 101 1
277 112 2
277 120 1
277 132 2
277 143 2
277 152 1
277 155 1
277 176 1
278 15 1
278 17 1
278 19 1
278 37 1
278 45 1
278 63 1
278 105 2
278 121 1
278 123 1
278 127 1
278 170 1
279 14 1
279 16 1
279 17 1
279 23 1
279 25 1
279 55 1
279 93 1
279 99 1
279 120 1
279 138 1
279 161 1
280 32 2
280 34 1
280 47 1
280 51 1
280 58 1
280 65 1
280 67 1
280 90 1
280 106 1
280 133 1
280 135 1
280 143 1
280 159 1
280 194 1
280 196 1
281 1 1
281 37 1
281 44 1
281 51 1
281 52 1
281 73 1
281 86 1
281 109 1
281 128 1
281 183 1
282 13 1
282 40 2
282 63 1
282 78 1
282 92 1
282 96 1
282 97 1
282 101 1
282 127 1
282 150 1
282 157 1
282 196 1
283 4 1
283 11 1
283 48 1
283 61 1
283 64 1
283 65 1
283 86 1
283 116 1
283 147 1
283 150 1
283 170 1
283 191 1
284 1 1
284 19 1
284 23 1
284 29 1
284 38 1
284 43 1
284 107 1
284 111 1
284 132 1
284 135 1
284 143 1
284 150 2
284 151 1
284 166 1
284 167 1
284 184 1
285 13 1
285 15 1
285 35 1
285 54 1
285 62 1
285 69 1
285 76 1
285 120 1
285 130 1
285 146 2
285 164 1
285 181 1
285 189 1
285 195 1
285 196 1
286 55 1
286 83 1
286 86 1
286 89 1
286 134 1
286 152 1
286 156 1
286 176 1
287 96 1
287 109 1
287 128 1
287 148 1
287 149 1
287 165 1
287 166 1
287 181 1
287 186 2
287 191 1
288 6 1
288 24 1
288 29 1
288 44 1
288 63 1
288 79 1
288 96 1
288 103 1
288 113 1
288 121 1
288 138 1
288 144 1
288 150 1
288 153 1
288 166 1
289 4 1
289 10 1
289 14 1
289 15 2
289 35 1
289 62 1
289 90 1
289 96 1
289 112 1
289 149 1
289 151 1
289 168 1
289 169 1
289 185 1
289 191 1
290 4 1
290 5 1
290 26 2
290 38 1
290 85 1
290 101 1
290 110 1
290 125 1
290 149 1
290 163 1
290 167 1
290 170 2
290 178 1
290 197 1
291 16 1
291 66 1
291 83 1
291 100 1
291 104 1
291 120 1
291 132 1
291 145 1
291 177 1
291 179 2
292 1 1
292 14 1
292 55 1
292 62 2
292 72 1
292 77 1
292 91 1
292 103 1
292 104 1
292 106 1
292 123 1
292 128 1
292 157 1
292 168 1
292 185 1
292 198 1
293 18 1
293 24 1
293 39 1
293 52 1
293 60 1
293 71 1
293 73 1
293 96 1
293 98 1
293 108 1
293 124 1
293 125 1
293 132 1
293 166 1
293 184 1
293 190 1
294 42 1
294 54 1
294 72 1
294 82 3
294 110 2
294 160 1
294 165 1
294 189 1
294 198 1
295 21 1
295 23 1
295 33 1
295 37 1
295 53 1
295 60 1
295 61 1
295 71 1
295 87 1
295 89 1
295 99 1
295 115 1
295 128 1
295 159 1
295 170 1
295 178 1
296 9 1
296 15 1
296 26 1
296 31 1
296 74 1
296 91 1
296 95 1
296 106 1
296 131 1
296 139 1
296 161 1
296 174 1
296 193 1
297 3 1
297 7 1
297 12 1
297 59 1
297 65 1
297 69 1
297 83 1
297 87 2
297 116 1
297 143 2
297 145 1
297 152 1
297 155 1
297 182 1
297 190 1
297 191 1
298 2 1
298 7 1
298 35 1
298 40 1
298 45 1
298 52 1
298 66 1
298 71 2
298 115 2
298 132 2
298 158 1
298 166 1
298 175 1
298 184 1
298 190 1
299 18 1
299 26 2
299 28 1
299 32 1
299 33 1
299 46 1
299 48 1
299 71 1
299 75 1
299 81 1
299 114 1
299 129 1
299 150 1
299 169 1
299 174 1
299 177 1
299 178 1
299 190 1
299 194 1
299 195 1
300 6 1
300 27 1
300 28 1
300 34 1
300 48 1
300 59 1
300 68 1
300 93 1
300 95 1
300 109 1
300 148 1
300 164 2
300 171 1
300 176 1
300 183 2
301 20 1
301 22 1
301 48 1
301 66 1
301 67 1
301 107 1
301 119 1
301 148 1
301 153 1
301 164 1
301 189 1
302 15 1
302 34 1
302 41 1
302 69 1
302 73 1
302 81 1
302 83 1
302 98 1
302 100 1
302 102 1
302 113 1
302 118 1
302 127 1
302 128 1
302 137 1
302 139 1
302 152 1
302 163 1
302 170 1
303 1 1
303 7 1
303 15 1
303 20 1
303 30 1
303 47 1
303 67 1
303 104 1
303 122 1
303 126 1
303 131 1
303 135 1
303 152 1
303 153 1
303 171 2
303 183 1
303 184 1
303 197 1
304 14 1
304 49 1
304 66 1
304 78 1
304 88 1
304 91 1
304 110 1
304 130 1
304 147 1
304 152 2
304 157 1
304 162 1
304 176 1
304 188 1
305 43 1
305 45 1
305 52 1
305 57 1
305 74 2
305 77 1
305 80 1
305 88 1
305 90 1
305 112 1
305 115 1
305 116 1
305 119 2
305 132 1
305 143 1
305 146 1
305 157 2
306 31 1
306 33 1
306 47 1
306 72 1
306 81 1
306 87 1
306 101 1
306 102 1
306 103 1
306 134 1
306 175 1
306 187 1
306 190 1
307 12 1
307 15 1
307 26 1
307 31 1
307 50 1
307 57 1
307 59 1
307 78 1
307 90 2
307 102 1
307 112 1
307 132 1
307 134 1
307 137 1
307 148 1
307 152 1
307 157 1
307 166 1
307 173 1
307 198 1
308 20 1
308 26 1
308 79 1
308 85 1
308 110 1
308 117 1
308 150 1
308 170 1
308 174 1
308 176 1
308 181 1
308 182 1
308 188 1
309 18 1
309 27 1
309 40 1
309 50 1
309 54 1
309 95 1
309 114 1
309 164 1
309 200 1
310 10 1
310 29 1
310 37 1
310 42 1
310 53 1
310 59 1
310 70 1
310 71 1
310 82 1
310 95 1
310 116 1
310 118 1
310 134 1
310 146 1
310 181 1
310 194 1
311 21 1
311 34 1
311 44 2
311 46 1
311 48 1
311 75 1
311 82 1
311 84 1
311 85 1
311 88 1
311 89 1
311 94 1
311 97 1
311 115 1
311 141 1
311 148 1
311 156 1
311 159 1
311 180 1
311 182 2
312 13 1
312 34 1
312 42 1
312 49 3
312 72 1
312 75 1
312 79 1
312 96 1
312 98 1
312 100 1
312 161 1
312 169 1
312 175 1
312 181 1
313 7 1
313 22 2
313 31 1
313 32 3
313 51 2
313 56 1
313 58 1
313 61 1
313 88 1
313 99 1
313 105 1
313 128 1
313 133 1
313 150 1
313 151 1
313 156 1
313 159 1
313 162 1
313 172 1
313 192 1
314 5 1
314 28 1
314 29 1
314 59 1
314 114 1
314 127 1
314 137 1
314 157 1
314 191 1
314 193 1
315 12 1
315 27 1
315 87 1
315 94 1
315 101 1
315 116 1
315 128 1
315 130 1
315 135 1
315 137 1
315 166 1
315 167 1
315 192 1
316 6 1
316 12 1
316 53 1
316 62 1
316 92 1
316 100 1
316 115 1
316 120 1
316 124 1
316 136 1
316 151 2
316 159 1
316 161 1
316 163 1
316 167 1
316 170 1
316 173 1
316 198 2
317 39 1
317 41 1
317 52 1
317 58 1
317 84 1
317 119 1
317 123 1
317 133 1
317 158 1
317 183 1
317 192 1
317 196 1
317 197 1
318 27 1
318 62 1
318 84 1
318 114 1
318 117 1
318 124 1
318 147 1
318 155 1
318 170 1
318 172 1
318 193 1
319 5 1
319 26 1
319 53 2
319 65 1
319 102 1
319 110 2
319 121 1
319 131 2
319 133 1
319 134 1
319 142 1
319 143 1
319 158 1
319 171 1
319 183 1
319 189 1
319 197 1
320 22 1
320 65 1
320 72 1
320 105 1
320 108 1
320 132 1
320 139 1
321 60 1
321 63 1
321 74 1
321 84 1
321 87 1
321 89 1
321 95 1
321 117 1
321 121 1
321 123 1
321 139 1
321 151 2
321 155 1
321 162 1
321 170 2
321 186 1
321 189 1
321 196 1
321 198 2
322 1 1
322 3 1
322 7 1
322 9 1
322 16 2
322 40 1
322 47 1
322 64 1
322 78 2
322 81 1
322 91 1
322 96 1
322 102 1
322 132 1
322 144 2
322 184 1
323 14 1
323 19 1
323 23 1
323 26 1
323 54 1
323 66 1
323 115 1
323 117 1
323 134 1
323 152 1
323 154 1
323 159 1
323 191 1
323 196 2
324 15 1
324 30 1
324 52 1
324 117 1
324 119 1
324 121 1
324 122 1
324 126 1
324 140 1
324 146 1
324 183 1
324 191 1
325 18 1
325 30 1
325 32 1
325 36 2
325 67 1
325 81 1
325 93 1
325 96 1
325 99 1
325 102 1
325 120 1
325 126 1
325 150 1
325 166 1
325 179 1
325 182 1
326 2 1
326 25 1
326 81 2
326 85 1
326 93 1
326 103 1
326 112 1
326 118 2
326 132 1
326 138 1
326 174 1
327 20 1
327 41 1
327 52 1
327 60 1
327 92 1
327 122 1
327 181 1
327 184 1
327 194 1
328 14 1
328 22 1
328 39 1
328 64 1
328 65 1
328 82 2
328 84 1
328 94 1
328 101 1
328 125 1
328 130 1
328 145 1
328 154 1
328 158 1
328 160 1
328 170 1
328 192 1
329 5 1
329 34 1
329 51 1
329 87 1
329 161 1
329 169 1
329 175 1
329 190 1
329 198 1
330 2 1
330 17 1
330 29 1
330 35 1
330 48 1
330 74 1
330 84 1
330 85 1
330 91 1
330 92 1
330 122 1
330 144 1
330 186 1
330 189 1
330 195 1
331 11 1
331 13 1
331 19 1
331 36 1
331 39 1
331 49 1
331 59 1
331 65 1
331 67 1
331 72 2
331 74 1
331 90 1
331 131 1
331 132 1
331 133 1
331 143 2
331 167 1
332 4 1
332 5 1
332 25 1
332 27 1
332 30 1
332 33 1
332 56 1
332 69 1
332 87 1
332 104 2
332 117 1
332 121 1
332 190 1
333 9 1
333 17 1
333 28 1
333 41 1
333 43 1
333 77 1
333 84 1
333 88 1
333 92 1
333 102 1
333 107 1
333 132 1
333 143 1
333 151 1
334 40 1
334 49 1
334 55 1
334 59 1
334 68 1
334 87 1
334 107 2
334 114 1
334 119 1
334 136 1
334 156 1
334 176 1
334 183 1
335 19 1
335 23 1
335 38 2
335 43 1
335 85 1
335 88 1
335 108 1
335 135 1
335 136 1
336 2 1
336 9 1
336 29 1
336 35 1
336 39 1
336 56 1
336 63 1
336 116 2
336 123 1
336 132 1
336 137 1
336 138 2
336 156 1
336 160 1
336 199 1
337 50 1
337 64 1
337 73 1
337 81 1
337 88 1
337 126 1
337 142 1
337 176 1
337 178 1
337 190 1
337 194 2
338 17 1
338 36 1
338 41 1
338 58 1
338 80 1
338 82 1
338 87 1
338 113 1
338 123 1
338 128 1
338 140 1
338 143 2
338 155 1
338 175 1
339 15 1
339 17 1
339 29 1
339 54 1
339 55 1
339 78 1
339 104 1
339 126 1
339 127 1
339 156 1
339 157 1
339 179 1
339 186 1
339 191 1
340 9 1
340 11 1
340 18 1
340 26 1
340 36 1
340 106 1
340 107 1
340 144 1
340 163 1
340 169 1
340 195 1
341 17 1
341 22 1
341 25 1
341 27 2
341 29 1
341 39 1
341 49 1
341 66 1
341 79 1
341 154 1
341 177 1
341 179 1
341 183 1
341 189 1
341 200 1
342 3 1
342 8 1
342 17 1
342 29 1
342 37 1
342 42 1
342 46 1
342 86 1
342 95 1
342 123 1
342 177 1
342 197 1
343 1 1
343 2 1
343 55 1
343 65 1
343 68 1
343 75 1
343 98 2
343 100 1
343 115 1
343 118 1
343 136 1
343 160 1
343 161 1
343 178 2
344 5 1
344 6 1
344 7 1
344 54 1
344 55 1
344 57 1
344 107 1
344 118 2
344 145 1
344 166 1
344 193 1
345 9 1
345 32 1
345 41 1
345 76 2
345 104 2
345 109 1
345 133 1
345 159 1
345 167 1
345 172 1
345 174 1
345 194 1
346 9 1
346 31 2
346 66 1
346 80 1
346 91 2
346 95 1
346 99 1
346 104 1
346 122 1
346 129 1
346 173 1
347 22 1
347 32 1
347 53 1
347 64 1
347 65 1
347 74 1
347 77 1
347 80 1
347 89 1
347 125 1
347 140 1
347 141 1
347 151 1
347 176 1
347 181 1
347 185 1
347 194 1
347 195 1
348 5 1
348 14 1
348 15 1
348 24 1
348 37 1
348 41 1
348 46 1
348 49 1
348 78 1
348 81 1
348 135 1
348 143 1
348 148 2
348 150 1
348 153 1
348 161 2
348 162 1
348 172 1
348 175 2
348 176 1
348 184 1
348 188 1
348 191 1
349 50 1
349 52 1
349 71 1
349 73 1
349 99 2
349 105 1
349 115 2
349 132 1
349 142 1
349 157 1
349 178 2
349 194 1
350 6 1
350 15 2
350 35 1
350 62 1
350 77 1
350 130 1
350 135 1
350 192 1
351 2 1
351 5 1
351 15 1
351 83 1
351 84 1
351 130 1
351 136 2
351 153 1
351 161 1
351 187 1
351 192 1
351 198 1
352 10 1
352 21 2
352 47 1
352 53 1
352 60 1
352 73 1
352 85 1
352 102 1
352 106 1
352 126 1
352 137 1
352 143 1
352 157 1
352 166 1
352 175 1
353 61 1
353 64 2
353 79 2
353 95 1
353 100 1
353 115 2
353 140 1
353 159 1
353 167 1
353 172 1
353 174 1
353 184 1
353 194 1
354 7 1
354 12 1
354 19 1
354 25 1
354 52 1
354 55 2
354 65 1
354 107 1
354 122 1
354 125 1
354 137 1
354 154 1
354 160 2
354 191 1
355 13 1
355 18 1
355 22 1
355 25 1
355 50 1
355 59 1
355 63 1
355 76 1
355 81 1
355 82 2
355 89 1
355 100 1
355 101 1
355 103 1
355 107 1
355 113 1
355 117 1
355 122 1
355 150 1
355 155 1
355 179 1
355 182 1
355 187 1
355 193 1
356 94 1
356 126 1
356 175 1
356 180 1
356 188 1
356 198 1
356 199 1
357 8 1
357 31 1
357 53 1
357 95 1
357 116 1
357 117 1
357 141 1
357 172 1
357 177 1
357 189 1
357 194 1
358 1 1
358 10 2
358 36 1
358 38 1
358 54 1
358 70 1
358 85 1
358 95 1
358 132 2
358 153 1
358 157 1
358 167 1
358 175 1
358 178 1
358 182 1
359 1 1
359 12 1
359 20 1
359 30 1
359 38 1
359 39 1
359 100 1
359 104 1
359 110 1
359 122 1
359 135 1
359 160 2
359 181 1
360 6 1
360 15 1
360 30 1
360 43 1
360 67 1
360 79 1
360 111 1
360 134 1
360 136 1
360 157 1
360 162 1
360 173 1
360 185 1
360 195 1
361 1 1
361 13 1
361 29 1
361 64 1
361 69 1
361 74 1
361 76 1
361 95 1
361 127 1
361 134 1
361 136 2
361 150 1
361 181 1
361 182 1
361 185 1
361 186 1
362 13 2
362 53 1
362 77 1
362 87 1
362 98 2
362 114 1
362 144 1
362 168 1
362 184 1
363 19 1
363 28 1
363 83 1
363 101 1
363 119 1
363 124 1
363 127 1
363 131 1
363 145 1
363 168 1
364 13 1
364 18 1
364 34 1
364 55 1
364 59 1
364 74 1
364 94 1
364 110 1
364 125 1
364 130 1
364 149 1
364 160 1
364 177 1
364 182 1
364 188 1
365 11 2
365 34 1
365 43 1
365 85 1
365 112 1
365 124 1
365 125 1
365 133 1
365 137 1
365 162 1
365 183 1
365 187 1
366 26 1
366 28 1
366 30 1
366 39 1
366 46 1
366 128 1
366 135 1
366 142 1
366 150 1
366 158 1
366 163 1
366 183 1
367 20 1
367 21 1
367 25 2
367 78 2
367 115 1
367 125 1
367 151 1
367 155 1
367 185 1
367 188 1
367 198 1
368 3 1
368 12 1
368 63 1
368 64 1
368 66 1
368 80 1
368 86 1
368 95 1
368 116 1
368 157 1
368 169 1
368 172 1
368 175 1
368 178 1
368 180 1
368 185 1
368 194 1
368 199 2
369 19 1
369 28 1
369 62 1
369 64 1
369 88 1
369 133 1
369 154 1
369 155 1
369 159 1
369 179 1
369 192 1
369 200 2
370 5 1
370 18 1
370 30 1
370 47 1
370 52 1
370 76 1
370 120 1
370 131 1
370 168 2
370 181 1
371 6 1
371 11 1
371 54 1
371 62 1
371 72 1
371 76 1
371 78 1
371 89 1
371 92 1
371 95 1
371 115 1
371 119 1
371 128 1
371 132 1
371 145 2
371 158 1
372 20 1
372 32 1
372 35 1
372 38 1
372 44 1
372 66 2
372 88 1
372 99 1
372 102 1
372 114 1
372 137 2
372 147 1
372 168 1
372 175 1
373 31 1
373 32 1
373 47 1
373 58 1
373 62 1
373 71 1
373 90 1
373 93 1
373 109 1
373 110 1
373 130 1
373 135 1
373 154 1
373 157 1
373 158 1
373 170 1
373 194 1
374 17 1
374 21 1
374 38 1
374 44 1
374 47 1
374 53 1
374 57 1
374 64 1
374 67 1
374 84 1
374 112 1
374 139 1
374 148 1
374 154 1
374 182 1
375 10 1
375 32 1
375 33 1
375 50 1
375 61 1
375 71 1
375 85 1
375 102 1
375 108 1
375 110 1
375 120 1
375 145 1
375 171 1
375 185 1
375 187 1
376 18 1
376 22 1
376 30 1
376 68 1
376 96 1
376 103 1
376 107 1
376 124 1
376 131 1
376 137 1
376 172 1
376 178 1
376 190 1
377 6 1
377 15 1
377 28 1
377 38 2
377 62 1
377 70 1
377 72 1
377 73 1
377 81 1
377 102 2
377 126 1
377 142 1
377 145 1
377 155 1
377 184 2
378 5 1
378 17 1
378 24 1
378 46 1
378 76 1
378 88 1
378 92 1
378 106 1
378 143 1
378 149 1
378 150 2
378 151 2
378 185 1
378 198 1
379 5 1
379 26 1
379 34 1
379 36 1
379 66 1
379 75 1
379 84 1
379 87 1
379 172 1
379 197 3
379 200 1
380 3 1
380 13 1
380 18 1
380 28 1
380 48 1
380 53 1
380 55 1
380 65 1
380 79 1
380 96 1
380 109 1
380 116 1
380 143 1
380 158 1
380 165 1
380 166 1
380 167 1
381 10 2
381 12 1
381 28 2
381 30 1
381 42 1
381 51 1
381 67 1
381 109 1
381 115 1
381 121 1
381 123 1
381 128 1
381 137 1
381 141 1
381 154 1
381 168 1
381 169 1
381 182 1
381 200 1
382 14 1
382 32 1
382 49 1
382 57 1
382 59 1
382 70 1
382 83 1
382 109 1
382 111 1
382 129 2
382 134 1
382 140 1
382 150 1
382 170 1
382 177 1
383 24 1
383 40 1
383 94 1
383 100 1
383 117 1
383 131 1
383 157 1
383 158 1
383 162 1
383 188 1
384 27 1
384 28 1
384 36 1
384 64 2
384 78 1
384 79 1
384 95 1
384 110 1
384 116 1
384 117 1
384 119 1
384 120 1
384 121 1
384 123 1
384 155 1
384 158 1
384 169 1
384 174 1
384 183 1
385 2 1
385 7 1
385 41 1
385 68 1
385 73 1
385 77 1
385 114 2
385 141 1
385 146 1
385 151 1
385 160 1
385 170 1
386 19 1
386 57 1
386 82 1
386 97 1
386 111 2
386 114 1
386 121 1
386 128 1
386 131 2
386 147 1
386 150 1
386 172 1
386 188 1
386 193 1
386 200 1
387 36 1
387 41 1
387 51 1
387 58 1
387 59 1
387 65 1
387 82 1
387 97 1
387 107 1
387 114 1
387 126 1
387 132 1
387 166 1
388 12 1
388 15 1
388 19 1
388 23 1
388 31 1
388 45 1
388 47 1
388 49 1
388 54 2
388 85 1
388 88 1
388 92 1
388 98 1
388 117 1
388 123 1
388 153 1
388 179 1
388 193 1
389 6 1
389 15 1
389 40 1
389 43 1
389 47 1
389 63 1
389 76 1
389 89 1
389 90 1
389 93 1
389 134 1
389 135 1
389 143 1
389 147 1
389 151 1
389 152 1
389 166 1
389 170 1
389 184 1
389 189 1
390 8 1
390 14 1
390 41 1
390 46 1
390 50 1
390 57 1
390 61 1
390 71 1
390 73 2
390 75 1
390 102 1
390 111 1
390 112 1
390 116 1
390 119 1
390 129 1
390 149 2
390 153 1
390 169 1
390 176 1
390 184 1
390 193 1
391 5 1
391 47 1
391 48 1
391 65 1
391 74 1
391 81 1
391 122 1
391 141 1
391 188 1
391 189 1
392 60 1
392 62 1
392 72 1
392 156 1
392 166 1
393 1 1
393 7 1
393 49 1
393 64 1
393 70 1
393 77 1
393 78 1
393 91 1
393 92 1
393 101 1
393 122 1
393 166 1
393 181 1
393 186 1
394 16 1
394 50 1
394 99 1
394 123 2
394 124 1
394 140 1
394 184 1
394 190 1
395 3 1
395 7 1
395 26 1
395 44 1
395 49 1
395 57 1
395 78 1
395 103 1
395 105 1
395 106 1
395 154 1
395 164 1
395 166 1
395 181 1
396 3 1
396 22 1
396 23 1
396 27 1
396 49 1
396 51 1
396 71 1
396 79 1
396 89 1
396 106 1
396 117 1
396 146 1
396 163 1
396 166 1
396 190 1
397 17 1
397 19 1
397 49 1
397 63 1
397 82 1
397 99 1
397 133 2
397 141 1
397 153 1
397 163 1
397 166 1
397 171 1
397 186 1
397 191 1
397 193 1
398 23 1
398 43 1
398 60 1
398 88 1
398 101 1
398 118 1
398 131 1
398 135 1
398 154 1
398 156 1
398 199 1
399 10 1
399 34 1
399 57 1
399 69 1
399 102 1
399 105 1
399 136 1
399 144 1
399 161 1
399 183 1
399 185 1
399 200 1
400 35 1
400 41 1
400 68 1
400 78 1
400 83 1
400 92 1
400 108 1
400 130 1
400 141 1
400 168 1
400 178 1
400 182 1
400 190 1
400 194 1
401 7 1
401 15 1
401 24 1
401 32 3
401 42 1
401 70 1
401 109 1
401 112 1
401 149 1
401 161 1
401 163 1
401 164 1
401 173 1
401 180 2
402 80 1
402 88 1
402 117 1
402 178 1
402 186 1
403 20 1
403 35 1
403 79 1
403 92 1
403 160 1
403 193 1
404 4 1
404 11 1
404 32 1
404 36 1
404 57 3
404 61 2
404 65 1
404 66 1
404 69 1
404 70 1
404 80 1
404 107 1
404 114 1
404 166 1
404 169 1
404 194 1
405 19 1
405 20 1
405 28 2
405 33 1
405 35 1
405 44 1
405 51 1
405 62 1
405 70 1
405 76 1
405 115 1
405 129 1
405 130 1
405 140 1
405 146 1
405 147 1
405 161 1
405 187 1
406 13 1
406 32 1
406 37 1
406 65 1
406 69 1
406 75 1
406 85 1
406 95 1
406 96 1
406 120 1
406 121 1
406 130 1
406 145 2
406 146 1
406 158 1
406 190 1
406 198 1
407 31 1
407 66 1
407 77 1
407 82 1
407 87 2
407 95 1
407 109 1
407 149 1
407 182 1
407 194 2
408 4 1
408 24 1
408 25 1
408 48 1
408 74 1
408 77 1
408 114 1
408 117 1
408 127 1
408 168 1
409 1 1
409 9 1
409 32 1
409 66 1
409 86 1
409 101 1
410 3 1
410 7 1
410 21 1
410 86 1
410 107 1
410 153 1
410 189 1
410 196 1
411 15 1
411 49 1
411 101 1
411 104 1
411 151 1
411 168 1
411 197 1
411 198 1
412 3 1
412 7 1
412 23 1
412 30 1
412 40 1
412 49 1
412 71 1
412 76 1
412 88 1
412 94 1
412 106 1
412 110 1
412 117 2
412 132 1
412 139 1
412 143 1
412 158 2
412 174 1
412 177 1
412 183 1
412 194 1
413 12 1
413 16 1
413 38 2
413 59 1
413 79 1
413 94 1
413 99 1
413 109 1
413 116 1
413 118 1
413 134 1
413 140 1
413 142 1
413 156 1
413 173 1
413 179 1
414 27 1
414 28 1
414 37 1
414 39 1
414 42 1
414 54 1
414 63 1
414 72 1
414 80 1
414 93 2
414 94 3
414 95 1
414 110 1
414 115 1
414 119 1
414 120 1
414 131 1
414 143 1
414 157 1
414 158 1
414 163 1
414 165 1
414 173 1
414 180 1
414 186 1
414 194 1
414 196 1
415 6 1
415 34 1
415 38 1
415 51 1
415 79 1
415 93 1
415 109 1
415 122 1
415 138 2
415 159 2
415 176 1
415 178 1
416 12 1
416 17 1
416 53 1
416 61 1
416 72 1
416 79 1
416 90 1
416 96 1
416 99 1
416 110 1
416 137 1
416 139 1
416 145 1
417 50 1
417 61 1
417 113 1
417 126 1
417 150 1
417 166 1
417 179 2
417 180 1
417 181 2
417 183 1
417 186 1
417 189 1
418 9 1
418 18 1
418 29 1
418 39 1
418 44 1
418 45 1
418 66 1
418 76 1
418 99 1
418 103 1
418 106 1
418 126 1
418 148 1
418 165 1
418 170 1
418 178 1
419 12 1
419 13 1
419 41 1
419 63 1
419 73 1
419 95 1
419 113 1
419 136 1
419 151 1
419 179 1
419 181 1
419 191 1
419 199 1
420 10 1
420 14 2
420 22 1
420 31 2
420 37 1
420 53 1
420 78 1
420 98 1
420 109 1
420 167 1
420 174 1
420 177 1
421 3 1
421 29 1
421 69 1
421 99 1
421 103 1
421 117 2
421 127 1
421 132 1
421 136 1
421 145 1
421 148 1
421 168 1
421 171 2
421 187 1
421 196 1
422 27 1
422 31 1
422 33 1
422 63 1
422 75 1
422 80 1
422 82 1
422 104 1
422 107 1
422 118 1
422 121 1
422 125 1
422 182 1
422 186 1
422 190 1
423 33 1
423 39 1
423 50 1
423 73 1
423 74 1
423 86 1
423 89 1
423 93 1
423 135 1
423 138 2
423 144 1
423 149 1
423 160 1
423 165 2
423 169 1
423 174 1
423 196 1
423 197 1
424 5 1
424 41 1
424 43 1
424 48 1
424 59 1
424 65 1
424 78 1
424 81 1
424 95 1
424 101 1
424 104 1
424 114 1
424 116 1
424 117 1
424 118 1
424 136 1
424 142 1
424 181 1
425 5 1
425 8 1
425 23 1
425 28 1
425 31 1
425 91 1
425 107 1
425 118 1
425 143 1
425 170 1
426 2 1
426 3 1
426 17 1
426 39 1
426 41 1
426 47 1
426 48 1
426 91 2
426 101 1
426 110 1
426 130 3
426 141 1
426 143 1
426 147 1
426 155 1
426 159 2
426 165 1
426 183 1
426 192 1
427 27 1
427 32 1
427 36 1
427 58 1
427 59 1
427 139 1
427 140 1
427 179 1
427 192 1
427 198 1
428 15 1
428 36 1
428 39 1
428 40 1
428 70 1
428 78 1
428 99 1
428 104 1
428 111 1
428 123 1
428 171 1
428 190 1
428 191 1
429 2 2
429 18 1
429 52 1
429 56 2
429 72 1
429 84 1
429 99 1
429 108 1
429 109 1
429 164 1
429 165 1
429 172 1
429 184 1
429 189 1
430 9 1
430 13 1
430 16 1
430 17 1
430 40 2
430 55 1
430 124 1
430 155 1
430 160 1
430 178 1
430 192 1
430 197 2
431 43 1
431 58 1
431 65 2
431 67 1
431 68 1
431 86 1
431 107 1
431 111 1
431 116 1
431 128 1
431 131 1
431 143 1
431 144 1
431 152 1
431 154 1
431 164 1
431 174 1
432 26 1
432 30 1
432 36 1
432 46 1
432 55 1
432 57 1
432 67 1
432 71 2
432 100 2
432 103 1
432 126 1
432 127 1
432 148 1
432 172 1
433 15 1
433 61 1
433 67 1
433 88 1
433 109 1
433 116 1
433 122 1
433 150 1
433 156 1
433 179 1
434 8 2
434 14 1
434 19 1
434 20 1
434 35 1
434 38 1
434 40 1
434 50 1
434 61 1
434 75 1
434 90 1
434 91 1
434 104 1
434 105 1
434 112 1
434 133 1
434 151 1
434 154 1
434 170 1
434 172 1
434 176 1
434 187 1
434 193 1
434 195 1
435 33 1
435 77 1
435 85 1
435 98 1
435 122 2
435 144 1
435 151 1
435 167 1
436 12 1
436 21 1
436 25 1
436 44 2
436 55 1
436 56 1
436 61 1
436 62 1
436 71 1
436 93 1
436 105 1
436 123 1
436 150 1
436 158 1
436 161 1
436 171 1
436 191 1
437 9 1
437 31 1
437 38 1
437 44 1
437 47 1
437 49 2
437 77 1
437 121 1
437 131 2
437 134 1
437 140 1
437 157 1
437 169 1
437 191 1
437 196 1
438 6 1
438 88 1
438 103 1
438 129 1
438 137 1
438 155 1
438 195 1
439 2 1
439 10 1
439 17 1
439 22 1
439 48 1
439 61 1
439 84 1
439 118 1
439 119 2
439 128 1
439 132 1
439 157 1
439 176 1
439 196 1
440 5 1
440 24 1
440 29 1
440 31 1
440 42 1
440 79 1
440 87 1
440 139 1
440 176 1
440 180 1
440 189 1
440 195 1
441 5 1
441 8 1
441 28 1
441 52 1
441 122 1
441 138 1
441 164 1
441 168 1
441 173 2
441 183 1
441 184 1
442 2 1
442 8 1
442 28 1
442 54 1
442 65 1
442 67 1
442 72 1
442 76 1
442 91 1
442 92 1
442 93 1
442 115 2
442 122 1
442 124 2
442 145 1
442 159 1
442 170 1
442 193 1
443 14 1
443 15 1
443 49 1
443 52 1
443 67 1
443 78 1
443 80 1
443 82 1
443 126 1
443 149 1
443 156 1
443 185 1
443 193 1
444 13 1
444 23 1
444 27 1
444 29 1
444 54 1
444 57 1
444 58 1
444 84 1
444 110 2
444 138 1
444 143 1
444 167 1
444 179 2
444 183 1
445 9 1
445 23 1
445 30 1
445 32 1
445 47 1
445 48 1
445 54 1
445 68 2
445 74 1
445 80 1
445 89 1
445 97 1
445 113 1
445 118 1
445 125 1
445 134 1
445 144 1
445 164 1
445 179 1
445 194 1
446 23 1
446 70 1
446 80 2
446 100 1
446 104 1
446 107 1
446 118 1
446 157 1
446 175 2
446 183 1
447 22 1
447 30 1
447 47 1
447 77 1
447 79 1
447 81 1
447 116 1
447 177 1
447 178 1
447 179 1
447 192 1
448 21 1
448 35 1
448 38 1
448 41 1
448 44 1
448 67 1
448 75 1
448 85 1
448 89 1
448 122 1
448 130 1
448 161 1
448 162 1
448 178 1
448 182 1
449 9 1
449 38 1
449 42 1
449 60 1
449 62 1
449 115 1
449 149 1
449 154 1
449 176 1
449 182 2
449 189 1
450 3 1
450 46 3
450 65 1
450 86 1
450 92 1
450 96 1
450 121 1
450 124 1
450 137 1
450 148 1
450 165 1
451 45 1
451 52 1
451 60 1
451 89 1
451 106 1
451 107 1
451 128 1
451 138 1
451 146 1
451 148 1
451 159 1
451 160 1
451 184 1
452 2 1
452 57 1
452 77 1
452 97 1
452 110 1
452 115 2
452 145 1
452 160 1
452 186 1
452 193 1
453 45 1
453 70 1
453 73 1
453 101 1
453 107 1
453 120 1
453 134 1
453 138 2
453 146 1
453 166 1
453 179 1
453 189 1
453 193 1
453 200 1
454 44 1
454 46 1
454 51 1
454 52 1
454 53 1
454 85 2
454 89 1
454 121 1
454 132 1
454 142 1
454 165 1
454 175 1
454 180 1
454 185 1
454 188 1
454 197 1
455 12 1
455 15 1
455 22 1
455 36 1
455 41 1
455 92 1
455 145 1
455 152 1
455 153 1
455 179 1
456 4 2
456 5 1
456 9 1
456 16 1
456 36 1
456 47 1
456 69 1
456 75 1
456 117 1
456 139 1
456 142 1
456 178 1
456 195 2
457 8 1
457 17 1
457 24 1
457 33 1
457 44 1
457 64 1
457 67 1
457 106 1
457 113 2
457 116 1
457 122 1
457 134 1
457 157 1
457 178 1
457 182 1
457 196 1
458 14 1
458 18 1
458 34 1
458 51 1
458 53 1
458 74 1
458 79 1
458 81 1
458 82 1
458 83 1
458 103 1
458 110 1
458 144 1
458 164 1
458 183 1
459 10 2
459 21 1
459 30 1
459 34 2
459 46 1
459 76 1
459 82 1
459 96 1
459 135 1
459 137 1
459 152 1
459 157 1
459 160 1
459 182 1
459 186 2
459 192 1
460 8 1
460 11 1
460 67 1
460 83 1
460 88 1
460 91 1
460 96 2
460 106 1
460 117 1
460 128 1
460 135 1
460 154 1
460 174 1
460 177 1
461 8 2
461 31 1
461 39 1
461 52 2
461 67 1
461 69 1
461 79 1
461 88 1
461 89 1
461 90 1
461 94 1
461 105 1
461 146 1
461 159 1
461 169 1
461 185 1
461 189 1
461 191 1
461 199 1
462 10 1
462 12 1
462 18 1
462 61 1
462 78 2
462 85 1
462 93 1
462 99 1
462 107 1
462 115 1
462 121 1
462 124 1
462 130 1
462 144 1
462 146 1
462 148 1
462 173 1
462 195 1
463 2 1
463 3 1
463 10 1
463 38 1
463 45 1
463 54 1
463 55 1
463 73 1
463 74 1
463 92 1
463 93 1
463 96 1
463 106 1
463 109 1
463 116 1
463 143 1
463 164 1
463 169 1
463 171 1
464 8 1
464 11 1
464 38 1
464 86 1
464 91 2
464 99 1
464 105 1
464 113 2
464 159 1
464 171 1
464 178 1
465 7 1
465 11 1
465 31 1
465 39 1
465 61 1
465 62 1
465 71 1
465 89 1
465 91 1
465 99 1
465 116 1
465 137 1
465 181 1
465 182 2
465 189 1
465 195 1
466 12 1
466 22 1
466 25 2
466 26 1
466 42 1
466 53 1
466 57 1
466 64 1
466 66 1
466 105 1
466 117 1
466 123 1
466 129 1
466 160 1
466 168 1
466 195 1
467 2 1
467 15 1
467 16 1
467 20 1
467 37 1
467 68 1
467 88 1
467 101 1
467 110 1
467 111 1
467 120 1
467 126 1
467 127 1
467 133 1
467 134 1
467 137 1
467 160 1
467 163 1
467 195 1
468 23 1
468 29 1
468 35 1
468 57 1
468 80 1
468 83 1
468 96 1
468 105 1
468 121 2
468 129 2
468 155 1
468 165 1
468 178 1
468 188 1
468 197 1
469 56 1
469 62 1
469 67 1
469 76 1
469 94 1
469 197 1
469 200 1
470 18 1
470 22 1
470 42 1
470 43 1
470 57 1
470 90 1
470 94 1
470 100 1
470 123 1
470 134 1
470 140 1
470 144 1
470 145 1
470 161 1
470 179 1
470 199 1
471 19 1
471 47 1
471 54 1
471 61 1
471 77 1
471 89 1
471 97 1
471 104 1
471 113 1
471 117 1
471 118 1
471 155 1
471 161 1
471 189 1
472 56 1
472 62 1
472 82 1
472 91 1
472 102 1
472 119 1
472 121 1
472 125 1
472 145 1
472 146 1
472 175 1
473 30 1
473 59 1
473 84 1
473 95 1
473 126 1
473 148 1
473 154 2
473 180 1
474 65 1
474 118 1
474 120 1
474 128 1
474 183 1
475 26 1
475 41 1
475 59 1
475 67 1
475 69 1
475 70 1
475 127 1
475 139 1
475 154 1
475 189 1
476 18 1
476 62 1
476 63 1
476 67 1
476 73 1
476 98 1
476 105 1
476 116 1
476 125 1
476 126 1
476 128 1
476 157 1
477 29 1
477 37 1
477 40 1
477 48 1
477 61 1
477 64 1
477 77 2
477 92 1
477 93 1
477 113 1
477 120 1
477 132 1
477 140 1
477 183 1
477 184 1
477 198 1
478 12 2
478 14 1
478 47 1
478 63 1
478 64 2
478 65 1
478 98 1
478 122 1
478 134 1
478 141 1
478 147 1
478 153 1
478 158 1
478 166 1
478 197 1
479 11 1
479 21 1
479 34 1
479 37 1
479 54 1
479 79 2
479 96 1
479 113 1
479 116 1
479 117 1
479 125 1
479 127 1
479 128 1
479 133 1
479 146 1
479 153 1
479 187 1
480 7 1
480 13 1
480 16 1
480 52 1
480 54 1
480 64 1
480 66 1
480 102 1
480 119 2
480 124 1
480 128 1
480 134 1
480 139 1
480 171 1
481 4 1
481 9 1
481 20 1
481 41 1
481 48 1
481 66 1
481 69 1
481 70 1
481 78 1
481 91 2
481 101 2
481 113 1
481 121 1
481 150 1
481 159 1
481 165 1
481 168 1
481 186 1
481 195 1
482 2 1
482 3 1
482 87 1
482 99 1
482 102 1
482 113 1
482 119 1
482 126 1
482 132 1
482 148 1
482 160 1
482 177 1
483 9 1
483 23 1
483 35 1
483 53 1
483 66 2
483 69 1
483 92 2
483 106 1
483 132 1
483 138 1
483 142 1
483 162 1
483 185 1
483 189 1
483 192 1
484 7 1
484 20 1
484 25 1
484 33 1
484 35 1
484 50 1
484 55 1
484 70 1
484 99 1
484 101 1
484 105 2
484 106 1
484 118 1
484 125 1
484 169 2
484 175 1
484 181 1
484 185 1
484 186 1
484 188 2
484 191 2
485 15 1
485 30 1
485 34 2
485 35 1
485 62 1
485 63 1
485 72 1
485 73 1
485 74 1
485 77 1
485 100 1
485 119 1
485 168 1
485 173 1
485 190 1
485 198 1
486 47 1
486 58 1
486 92 1
486 95 1
486 103 1
486 109 1
486 132 1
486 136 1
486 140 1
486 145 1
486 154 2
486 159 1
486 165 1
486 170 1
486 172 1
486 174 1
486 187 1
486 199 1
487 68 1
487 79 1
487 92 1
487 93 1
487 100 1
487 102 1
487 118 1
487 126 1
487 128 1
487 147 1
487 157 1
487 179 1
487 197 1
488 13 1
488 15 1
488 22 1
488 34 1
488 45 1
488 51 1
488 89 1
488 100 1
488 106 1
488 114 1
488 142 1
488 144 1
488 152 2
488 158 1
488 161 1
488 199 1
489 22 1
489 40 1
489 43 2
489 74 1
489 85 1
489 91 1
489 121 1
489 126 1
489 129 1
489 137 1
489 142 1
489 145 1
489 155 1
489 161 1
489 179 1
489 193 2
490 31 1
490 49 2
490 89 1
490 93 1
490 96 1
490 106 1
490 125 1
490 134 2
490 144 1
490 146 1
490 158 1
490 161 1
490 165 1
490 166 1
490 196 1
491 1 1
491 99 1
491 144 1
491 159 1
491 160 1
491 167 1
491 169 1
491 194 1
492 14 1
492 24 1
492 31 1
492 40 1
492 56 1
492 65 1
492 67 1
492 91 1
492 96 1
492 114 1
492 127 1
492 133 1
492 145 1
492 148 1
492 156 1
492 157 1
492 176 1
492 177 1
492 180 1
493 35 1
493 40 1
493 47 1
493 75 1
493 95 1
493 122 1
493 142 2
493 186 1
493 197 1
493 200 1
494 51 1
494 53 1
494 65 1
494 90 1
494 104 1
494 113 2
494 126 2
494 132 1
494 145 1
494 152 1
494 161 1
494 172 1
494 183 2
494 194 2
495 6 1
495 26 1
495 59 1
495 83 1
495 84 1
495 94 1
495 131 1
495 138 1
495 154 1
496 25 1
496 59 1
496 64 1
496 152 1
496 162 1
496 173 1
497 8 1
497 42 1
497 60 1
497 64 1
497 87 1
497 95 1
497 111 1
497 128 1
497 139 1
497 143 1
497 148 1
497 151 1
497 153 1
497 154 1
497 195 1
498 14 1
498 55 1
498 66 1
498 97 1
498 138 1
498 141 1
498 144 1
498 174 1
498 183 1
498 185 2
498 191 1
499 13 1
499 15 1
499 16 1
499 30 1
499 33 1
499 51 1
499 59 1
499 63 1
499 68 1
499 75 2
499 76 1
499 78 1
499 114 1
499 154 1
499 158 1
499 171 1
499 183 1
499 196 1
500 1 1
500 24 1
500 27 2
500 65 1
500 69 1
500 71 1
500 83 1
500 90 1
500 106 1
500 115 1
500 129 1
500 133 1
500 144 1
500 157 2
500 162 1
500 165 2
500 186 1
500 195 1
501 4 1
501 12 1
501 20 1
501 30 2
501 50 1
501 58 1
501 77 1
501 81 1
501 88 1
501 89 1
501 95 1
501 125 1
501 188 1
502 3 1
502 36 1
502 57 1
502 60 2
502 64 2
502 70 2
502 90 1
502 92 1
502 96 1
502 104 1
502 127 1
502 129 1
502 145 2
502 148 1
502 173 2
502 200 1
503 20 1
503 32 1
503 42 1
503 71 1
503 75 1
503 99 1
503 102 1
503 143 1
503 152 1
503 163 1
503 186 1
503 195 1
504 7 1
504 19 1
504 50 1
504 54 1
504 115 1
504 136 1
504 155 1
504 165 1
504 182 1
504 190 1
504 193 1
505 6 1
505 7 2
505 19 2
505 25 1
505 41 1
505 85 1
505 97 1
505 102 1
505 104 1
505 151 1
505 156 1
505 158 1
505 167 1
505 178 1
505 185 1
506 8 1
506 17 1
506 37 1
506 50 1
506 56 1
506 65 1
506 69 1
506 80 1
506 84 1
506 105 1
506 116 1
506 142 1
506 157 1
506 174 1
506 189 1
507 33 1
507 39 1
507 48 2
507 55 1
507 70 1
507 71 1
507 73 1
507 82 1
507 93 1
507 116 1
507 123 1
507 134 1
507 135 1
507 146 1
507 150 1
507 164 1
507 168 2
508 2 1
508 8 1
508 12 1
508 16 1
508 18 1
508 33 1
508 50 1
508 67 1
508 72 1
508 86 1
508 95 1
508 96 1
508 109 1
508 125 1
508 128 1
508 141 1
508 144 1
508 158 1
508 179 1
508 180 1
509 12 1
509 25 1
509 28 1
509 29 1
509 32 1
509 39 1
509 64 1
509 65 1
509 66 1
509 69 1
509 78 2
509 83 1
509 84 1
509 112 1
509 114 1
509 116 1
509 118 1
509 123 2
509 126 1
509 129 1
509 155 1
509 183 1
509 199 2
510 7 1
510 20 1
510 23 1
510 29 1
510 38 1
510 61 1
510 95 1
510 116 1
510 120 1
510 129 1
510 148 1
510 154 1
510 182 1
511 9 1
511 89 1
511 120 1
511 122 1
511 126 1
511 136 1
511 150 1
511 158 2
511 167 1
511 169 1
511 174 1
512 4 1
512 6 1
512 9 1
512 11 1
512 30 1
512 34 1
512 40 1
512 42 1
512 54 1
512 72 1
512 76 1
512 87 1
512 90 1
512 96 1
512 123 2
512 132 1
512 140 1
512 146 1
512 154 1
512 159 1
512 163 1
512 166 1
512 191 1
512 192 1
512 200 1
513 10 2
513 15 1
513 23 1
513 35 1
513 76 1
513 117 2
513 127 1
513 142 2
513 149 1
513 153 1
513 161 1
513 174 1
513 182 1
514 18 2
514 21 1
514 29 1
514 67 1
514 85 1
514 89 1
514 93 1
514 94 2
514 95 1
514 98 1
514 110 1
514 131 1
514 136 1
514 138 1
514 143 1
514 157 1
514 179 1
515 6 1
515 12 1
515 29 1
515 48 1
515 52 2
515 58 1
515 63 1
515 68 2
515 74 1
515 75 1
515 83 1
515 95 1
515 111 1
515 113 1
515 145 1
515 146 1
515 163 1
516 9 2
516 33 1
516 64 1
516 67 1
516 72 1
516 76 3
516 77 1
516 99 1
516 112 1
516 137 1
516 149 1
516 150 1
516 152 2
516 154 1
516 169 1
516 171 1
516 183 2
516 192 1
516 195 1
516 200 1
517 8 1
517 22 1
517 42 1
517 46 1
517 63 1
517 78 1
517 93 3
517 136 1
517 144 1
517 151 2
517 170 1
517 191 1
518 31 1
518 32 1
518 55 1
518 73 1
518 89 1
518 95 1
518 100 1
518 130 1
518 131 1
518 136 1
518 143 1
518 160 2
518 166 1
518 168 1
518 184 1
518 195 1
519 9 1
519 15 1
519 21 1
519 23 1
519 30 1
519 43 1
519 55 2
519 87 1
519 108 1
519 126 1
519 130 1
519 166 1
519 183 1
519 188 1
519 189 1
520 22 1
520 30 1
520 34 1
520 37 1
520 46 1
520 107 1
520 119 1
520 145 1
520 167 1
520 180 1
521 15 1
521 25 1
521 42 1
521 62 1
521 73 1
521 91 1
521 101 1
521 107 1
521 148 1
521 169 1
521 177 1
521 185 1
521 198 2
522 1 1
522 6 1
522 16 1
522 38 1
522 41 1
522 63 1
522 68 1
522 80 1
522 107 1
522 115 1
522 125 1
522 133 1
522 141 1
522 144 1
522 167 1
523 2 1
523 27 1
523 79 1
523 87 1
523 91 1
523 100 2
523 118 1
523 120 2
523 127 1
523 132 1
523 148 1
523 149 1
524 8 1
524 27 1
524 32 1
524 51 1
524 61 1
524 82 1
524 111 1
524 112 1
524 114 1
524 138 1
524 140 1
524 141 1
524 149 1
524 168 1
525 3 1
525 26 1
525 32 1
525 36 1
525 42 1
525 46 1
525 47 1
525 79 1
525 104 1
525 113 2
525 138 2
525 147 1
526 25 1
526 28 1
526 29 2
526 33 1
526 36 1
526 55 1
526 56 1
526 86 1
526 90 1
526 114 1
526 143 1
526 155 1
526 180 2
526 189 1
527 26 1
527 35 1
527 42 1
527 66 1
527 69 1
527 85 1
527 95 1
527 96 1
527 98 1
527 111 1
527 113 2
527 132 1
527 133 1
527 140 1
527 146 1
527 167 1
527 170 1
528 8 1
528 12 1
528 14 1
528 82 1
528 95 1
528 98 1
528 117 2
528 132 1
528 148 1
528 151 1
528 165 1
528 180 1
528 192 1
529 10 1
529 50 1
529 73 1
529 92 1
529 98 1
529 101 1
529 108 1
529 116 1
529 133 1
529 166 1
529 185 1
529 189 1
530 11 1
530 38 1
530 51 1
530 84 1
530 93 1
530 106 1
530 113 1
530 115 1
530 128 1
530 132 1
530 166 1
530 170 1
530 183 1
530 198 1
531 17 1
531 23 1
531 26 1
531 55 1
531 56 1
531 99 1
531 105 2
531 113 1
531 117 1
531 129 1
531 139 1
531 140 1
531 161 1
531 166 1
531 183 1
531 185 1
532 2 1
532 6 1
532 11 1
532 35 1
532 37 1
532 41 1
532 70 1
532 84 1
532 85 1
532 88 1
532 96 1
532 104 2
532 139 1
532 141 1
532 147 1
532 162 1
532 167 1
532 174 1
532 179 1
532 181 2
532 187 1
533 22 1
533 127 1
533 131 1
533 166 1
533 170 1
533 180 1
533 184 1
534 26 1
534 47 1
534 61 1
534 85 1
534 92 1
534 107 1
534 129 1
534 143 1
534 166 1
534 192 1
534 196 2
535 3 2
535 8 1
535 20 1
535 22 1
535 27 1
535 30 1
535 31 2
535 37 1
535 43 1
535 60 1
535 98 1
535 123 2
535 136 1
535 165 1
536 56 1
536 66 1
536 68 1
536 81 1
536 83 1
536 84 1
536 115 1
536 128 1
536 153 2
536 157 1
536 158 1
536 168 1
537 6 1
537 23 1
537 35 1
537 46 1
537 79 1
537 87 1
537 88 1
537 137 1
537 151 1
537 156 1
537 158 1
537 163 1
537 192 1
537 195 1
538 23 1
538 49 1
538 76 1
538 80 1
538 83 1
538 88 1
538 114 1
538 117 1
538 126 1
538 147 1
538 148 1
538 157 2
538 160 1
538 181 1
538 187 1
538 193 1
539 7 2
539 13 1
539 14 1
539 52 1
539 56 1
539 77 1
539 79 1
539 91 1
539 105 1
539 106 1
539 111 1
539 114 1
539 127 1
539 137 2
539 145 1
539 159 1
539 160 1
539 181 1
540 15 2
540 31 1
540 37 1
540 64 1
540 75 1
540 98 1
540 124 1
540 131 1
540 134 1
540 139 1
540 144 1
540 153 1
540 159 1
541 3 1
541 11 1
541 15 1
541 24 1
541 35 1
541 40 1
541 81 1
541 92 1
541 99 1
541 124 1
541 137 1
541 141 1
541 146 1
541 157 1
541 185 1
542 1 1
542 17 1
542 27 2
542 38 1
542 71 1
542 106 1
542 116 1
542 177 1
542 184 1
542 197 1
543 3 1
543 17 1
543 19 3
543 40 1
543 44 1
543 76 2
543 87 1
543 95 1
543 97 1
543 99 1
543 104 1
543 131 1
543 146 2
543 152 1
543 165 1
543 182 2
543 187 1
544 21 1
544 77 1
544 88 1
544 114 1
544 142 1
544 161 1
544 175 1
545 15 1
545 61 1
545 63 1
545 64 1
545 86 1
545 97 2
545 132 1
545 138 1
545 146 1
545 153 1
545 160 2
545 163 1
545 169 1
545 183 1
546 8 1
546 39 1
546 51 1
546 59 2
546 65 1
546 84 2
546 85 1
546 119 1
546 164 1
546 173 2
546 195 1
547 18 1
547 48 1
547 59 1
547 67 1
547 91 2
547 101 1
547 108 2
547 110 1
547 136 1
547 156 1
547 172 1
547 175 1
547 185 1
547 186 1
547 195 1
547 198 1
548 30 1
548 35 1
548 37 1
548 45 1
548 62 1
548 129 1
548 133 1
548 134 1
548 156 1
548 173 1
548 183 1
549 3 1
549 10 1
549 35 1
549 44 1
549 59 1
549 76 1
549 78 1
549 79 1
549 86 1
549 92 1
549 147 1
549 193 1
550 6 2
550 11 1
550 19 2
550 40 1
550 41 1
550 51 1
550 62 1
550 76 1
550 102 3
550 108 1
550 112 1
550 120 1
550 121 1
550 159 2
550 184 1
551 43 1
551 45 1
551 47 1
551 52 1
551 71 1
551 83 1
551 85 1
551 88 1
551 90 1
551 104 1
551 135 1
551 138 1
551 169 1
551 181 1
551 183 1
552 4 1
552 5 1
552 32 1
552 33 1
552 66 2
552 73 1
552 90 1
552 94 1
552 105 1
552 133 1
552 142 1
552 145 1
552 146 1
552 160 1
552 167 1
552 175 1
552 180 1
552 181 1
553 20 1
553 44 1
553 47 1
553 57 1
553 69 2
553 100 1
553 102 1
553 113 1
553 149 1
553 155 1
553 168 1
553 186 1
553 196 1
554 22 1
554 23 1
554 32 1
554 38 1
554 47 1
554 106 1
554 113 1
554 139 1
554 142 1
554 143 1
554 151 1
554 157 1
554 167 1
554 189 1
555 12 1
555 17 1
555 34 1
555 73 1
555 74 1
555 78 1
555 83 1
555 107 1
555 116 1
555 119 1
555 123 1
555 151 1
555 177 1
555 178 1
556 5 1
556 16 1
556 25 1
556 35 1
556 69 1
556 83 1
556 92 1
556 103 1
556 127 1
556 154 1
556 156 1
556 163 1
556 172 1
556 173 1
556 174 2
556 184 1
556 194 1
557 12 1
557 18 1
557 26 1
557 29 1
557 41 1
557 51 1
557 71 1
557 83 1
557 84 1
557 86 1
557 96 1
557 104 1
557 134 1
557 137 2
557 139 2
557 155 1
557 189 1
558 3 1
558 18 1
558 28 1
558 31 1
558 34 1
558 48 1
558 60 1
558 86 1
558 93 1
558 101 1
558 114 1
558 138 2
558 153 1
558 165 1
558 183 2
559 3 1
559 12 2
559 15 1
559 121 1
559 123 1
559 131 2
559 175 1
559 178 1
559 185 1
559 197 1
559 199 2
560 28 1
560 32 1
560 34 1
560 55 1
560 74 1
560 78 1
560 84 1
560 98 1
560 129 1
560 146 1
560 152 2
560 199 1
561 60 1
561 63 1
561 66 1
561 77 1
561 80 1
561 98 1
561 118 1
561 135 1
561 149 1
561 172 1
561 179 1
561 187 1
561 194 1
562 6 1
562 8 1
562 51 1
562 80 1
562 81 1
562 84 1
562 99 1
562 127 1
562 128 1
562 158 1
562 161 1
562 173 1
562 186 1
562 188 1
563 51 2
563 57 1
563 59 1
563 77 1
563 85 1
563 119 1
563 122 1
563 126 1
563 142 2
563 145 1
563 150 1
563 152 1
563 171 1
563 173 1
563 181 1
564 6 1
564 10 1
564 39 1
564 54 1
564 55 1
564 94 1
564 113 1
564 141 1
564 172 1
564 190 1
565 3 1
565 16 1
565 23 1
565 25 1
565 33 1
565 35 2
565 54 1
565 55 1
565 57 1
565 67 1
565 90 1
565 98 1
565 99 1
565 123 1
565 142 1
565 149 1
565 158 1
565 197 1
566 10 1
566 11 1
566 30 1
566 45 1
566 51 1
566 75 1
566 78 1
566 80 1
566 130 1
566 134 1
566 136 1
566 137 1
566 144 1
566 155 1
566 176 1
566 179 1
566 192 1
567 9 1
567 11 1
567 30 1
567 43 1
567 74 1
567 95 1
567 104 1
567 119 1
567 126 1
567 145 2
567 154 1
567 165 1
567 173 1
567 178 1
567 181 1
567 182 1
567 186 1
567 189 1
568 3 1
568 20 1
568 36 1
568 69 1
568 87 1
568 94 1
568 118 1
568 134 1
568 150 1
568 175 1
568 191 1
568 196 1
569 22 1
569 52 1
569 61 1
569 70 1
569 102 1
569 109 1
569 123 1
569 132 1
569 136 1
569 146 1
569 165 1
569 168 1
569 183 1
569 188 1
569 195 1
570 1 1
570 18 1
570 24 1
570 25 1
570 28 2
570 30 2
570 45 1
570 56 1
570 81 1
570 105 1
570 116 1
570 130 1
570 157 1
570 197 1
571 15 1
571 27 1
571 40 1
571 79 1
571 85 1
571 87 1
571 90 1
571 130 1
571 200 2
572 2 1
572 8 1
572 14 1
572 27 1
572 39 1
572 56 1
572 60 1
572 90 1
572 101 1
572 102 1
572 111 1
572 122 1
572 134 1
572 145 1
572 150 1
572 153 1
572 156 1
572 165 1
572 167 1
572 185 1
573 38 1
573 55 1
573 66 1
573 101 1
573 190 1
574 17 1
574 28 1
574 41 1
574 62 1
574 91 1
574 106 1
574 112 1
574 113 1
574 115 1
574 145 1
574 152 1
574 154 1
574 161 1
574 180 1
574 188 1
574 192 1
574 200 1
575 3 1
575 4 1
575 35 2
575 61 1
575 94 1
575 122 1
575 140 1
575 142 1
575 143 1
575 150 1
575 165 1
576 13 1
576 20 1
576 22 1
576 44 1
576 49 2
576 63 1
576 85 1
576 124 1
576 137 1
576 144 1
576 164 1
576 177 1
576 182 1
576 184 1
576 200 1
577 6 1
577 26 1
577 32 1
577 40 1
577 67 1
577 89 1
577 109 1
577 117 1
577 123 1
577 125 1
577 155 1
577 169 1
577 179 1
577 186 1
578 8 1
578 35 1
578 95 1
578 99 1
578 110 1
578 114 1
578 127 1
578 132 1
578 135 1
578 148 1
578 161 1
578 165 1
578 175 3
578 188 1
579 2 1
579 7 2
579 12 2
579 14 2
579 17 1
579 77 1
579 106 1
579 111 3
579 149 1
579 157 1
579 162 1
579 168 1
579 176 1
579 177 1
579 192 1
580 13 1
580 36 1
580 58 1
580 61 1
580 65 1
580 122 1
580 145 1
580 147 1
580 160 1
580 165 1
580 187 1
580 195 1
581 21 1
581 82 2
581 93 1
581 96 1
581 97 1
581 130 1
581 137 1
581 143 1
581 145 1
581 146 1
581 152 1
581 166 1
581 176 1
581 194 1
582 20 1
582 39 1
582 52 1
582 55 1
582 77 1
582 78 1
582 127 1
582 152 1
582 160 1
582 175 1
582 185 1
582 199 1
583 13 1
583 37 1
583 42 1
583 60 1
583 63 1
583 80 1
583 117 1
583 148 1
583 150 1
583 156 1
583 161 1
583 180 1
583 187 1
583 189 1
583 200 1
584 36 1
584 40 1
584 60 1
584 98 2
584 105 1
584 116 1
584 141 1
584 176 1
585 26 1
585 29 1
585 45 2
585 79 1
585 96 1
585 116 1
585 119 1
585 121 1
585 128 2
585 178 1
585 184 1
585 193 1
585 194 1
586 39 1
586 46 1
586 53 1
586 67 3
586 70 1
586 101 1
586 107 1
586 112 1
586 132 1
586 139 1
586 162 1
586 178 1
587 2 1
587 30 1
587 35 1
587 43 1
587 57 1
587 62 1
587 82 2
587 90 1
587 99 1
587 127 1
587 138 1
587 195 1
588 15 1
588 17 1
588 21 1
588 33 1
588 34 1
588 41 1
588 64 1
588 73 1
588 118 1
588 137 1
588 165 1
588 197 2
589 2 1
589 3 1
589 20 1
589 27 1
589 54 1
589 63 1
589 67 1
589 74 1
589 87 1
589 91 1
589 147 1
589 184 1
589 198 1
589 199 1
590 14 1
590 39 1
590 40 1
590 79 1
590 81 1
590 85 1
590 93 2
590 98 1
590 137 1
590 144 1
590 151 1
590 160 1
590 165 1
590 170 1
590 187 1
591 16 2
591 41 1
591 79 1
591 81 1
591 101 1
591 122 1
591 127 1
591 160 1
591 162 1
591 166 1
591 176 1
591 193 1
591 198 1
592 1 1
592 19 1
592 22 1
592 33 1
592 57 1
592 102 1
592 104 1
592 109 1
592 133 1
592 142 2
592 150 1
592 151 1
592 166 2
592 198 1
593 3 1
593 32 1
593 47 2
593 49 1
593 57 1
593 64 1
593 76 1
593 77 1
593 110 1
593 165 1
593 168 1
594 13 1
594 19 1
594 35 1
594 46 1
594 61 1
594 67 1
594 87 1
594 88 1
594 110 1
594 111 1
594 120 1
594 125 1
594 154 1
594 156 1
594 163 1
594 164 1
594 191 1
595 9 1
595 33 1
595 68 1
595 104 1
595 119 1
595 121 1
595 124 1
595 141 1
595 158 1
595 161 1
595 165 1
595 195 1
595 197 1
596 2 1
596 26 1
596 30 1
596 50 1
596 60 1
596 62 1
596 66 1
596 84 1
596 92 2
596 95 1
596 114 1
596 126 1
596 140 1
596 142 1
596 158 1
596 160 1
596 170 1
596 195 1
596 199 1
596 200 1
597 6 1
597 43 2
597 59 1
597 74 1
597 90 1
597 99 1
597 101 1
597 111 1
597 112 1
597 127 1
597 137 1
597 152 1
597 165 1
597 185 1
598 24 2
598 53 1
598 77 1
598 85 1
598 87 1
598 94 1
598 117 1
598 130 1
598 137 1
598 155 1
598 162 1
599 86 1
599 88 1
599 111 1
599 115 1
599 117 1
599 125 1
599 128 2
599 132 1
599 154 1
599 193 1
599 198 1
600 83 1
600 96 1
600 107 1
600 125 1
600 168 1
600 169 1
600 172 1
600 175 2
600 185 3
601 20 1
601 24 1
601 30 1
601 42 1
601 48 1
601 62 1
601 72 2
601 90 2
601 91 1
601 118 1
601 127 1
601 137 1
601 146 1
601 154 1
601 160 1
601 165 1
601 193 1
601 197 1
602 5 1
602 6 1
602 9 1
602 10 1
602 11 1
602 19 1
602 35 2
602 42 1
602 51 1
602 75 1
602 90 1
602 115 1
602 116 2
602 119 1
602 121 1
602 144 1
602 175 1
602 178 1
602 190 2
602 191 1
603 1 1
603 8 1
603 18 1
603 31 1
603 32 1
603 52 1
603 66 1
603 72 1
603 101 1
603 149 1
603 156 1
603 165 1
604 13 1
604 51 1
604 59 1
604 118 1
604 155 1
604 164 2
604 169 1
604 171 1
604 191 1
604 196 1
605 11 1
605 21 1
605 31 1
605 41 1
605 43 1
605 67 1
605 80 1
605 101 1
605 103 1
605 153 1
605 176 2
606 11 1
606 21 1
606 28 2
606 38 1
606 56 2
606 97 1
606 107 1
606 108 1
606 145 1
606 161 1
606 165 1
606 199 1
607 30 1
607 42 1
607 55 1
607 56 1
607 66 1
607 67 1
607 79 1
607 89 1
607 164 1
607 170 1
607 177 1
607 181 1
607 197 1
608 19 1
608 20 1
608 28 1
608 31 1
608 69 1
608 72 1
608 76 1
608 86 1
608 131 1
608 171 1
608 183 1
608 185 1
608 187 1
609 12 1
609 15 1
609 34 1
609 46 1
609 56 1
609 66 1
609 76 1
609 87 1
609 107 1
609 147 1
609 152 1
609 154 1
609 169 1
609 172 1
609 183 1
609 193 1
609 195 1
609 197 1
610 19 1
610 28 1
610 52 1
610 65 1
610 72 1
610 90 1
610 94 1
610 103 1
610 119 1
610 127 1
610 132 1
610 137 1
610 139 2
610 154 1
610 168 1
610 197 1
611 21 1
611 22 1
611 40 1
611 44 1
611 47 1
611 57 1
611 101 1
611 103 1
611 110 1
611 180 1
611 182 1
611 184 1
611 187 1
612 8 1
612 10 1
612 16 1
612 26 1
612 41 1
612 46 2
612 59 1
612 78 1
612 116 1
612 129 1
613 4 1
613 38 1
613 43 1
613 62 1
613 73 1
613 85 1
613 92 1
613 95 1
613 111 1
613 119 1
613 137 2
613 148 1
613 156 1
613 165 3
613 190 1
613 200 1
614 12 1
614 65 1
614 69 1
614 73 1
614 78 1
614 83 1
614 106 1
614 116 1
614 137 1
614 189 1
614 192 1
615 17 1
615 29 1
615 32 1
615 45 1
615 59 2
615 72 2
615 97 1
615 102 2
615 163 1
615 168 1
615 179 2
615 190 1
615 192 1
616 5 1
616 23 1
616 25 1
616 28 2
616 36 1
616 72 2
616 107 1
616 114 1
616 118 2
616 143 1
616 145 1
616 147 1
616 156 1
616 166 1
616 170 1
616 177 1
616 179 1
616 185 1
616 197 1
617 1 1
617 3 1
617 12 1
617 14 1
617 22 1
617 33 2
617 40 1
617 86 1
617 91 1
617 104 1
617 107 1
617 112 1
617 124 1
617 134 1
617 141 1
617 168 1
618 3 2
618 13 1
618 73 1
618 87 1
618 113 1
618 114 1
618 124 2
618 135 1
618 137 1
618 141 1
618 148 1
618 157 1
618 159 1
618 160 1
618 185 1
619 13 1
619 30 1
619 57 1
619 59 1
619 68 1
619 76 1
619 134 1
619 159 1
619 160 1
619 166 1
619 195 1
620 10 1
620 17 1
620 21 1
620 23 1
620 75 1
620 90 2
620 94 1
620 96 1
620 111 1
620 112 1
620 114 1
620 115 1
620 124 1
620 125 1
620 131 1
620 134 1
620 144 1
620 149 1
620 156 1
620 159 1
620 173 1
620 177 1
620 179 1
621 10 1
621 22 1
621 34 1
621 38 2
621 101 1
621 121 1
621 130 1
621 136 1
621 146 1
621 155 1
621 166 1
621 171 1
621 177 1
621 182 1
621 199 1
622 11 1
622 42 2
622 99 1
622 106 1
622 109 1
622 121 1
622 130 1
622 140 1
622 141 1
622 146 1
622 175 1
622 176 1
622 188 1
623 13 1
623 18 1
623 35 1
623 45 1
623 56 1
623 67 1
623 82 2
623 123 1
623 126 1
623 127 1
623 148 1
623 153 1
623 174 1
623 177 1
623 188 1
623 191 1
624 12 1
624 20 1
624 61 1
624 74 1
624 100 1
624 104 1
624 141 1
624 143 1
624 155 1
624 159 1
624 162 1
624 181 1
624 188 2
625 8 1
625 17 1
625 20 1
625 27 1
625 44 1
625 56 1
625 73 1
625 77 1
625 91 1
625 118 1
625 122 1
625 123 1
625 166 1
625 192 1
626 48 1
626 52 1
626 67 1
626 89 1
626 96 1
626 98 1
626 117 1
626 118 1
626 142 1
626 146 1
626 152 1
626 158 1
626 162 1
626 176 2
626 188 1
626 195 1
627 28 1
627 30 1
627 56 1
627 60 1
627 67 1
627 98 1
627 130 1
627 138 1
627 145 1
627 152 1
627 160 1
627 168 1
627 172 1
627 185 1
627 200 1
628 15 1
628 20 1
628 45 1
628 47 1
628 62 1
628 67 1
628 70 1
628 98 1
628 102 1
628 107 1
628 129 1
628 133 1
628 154 1
628 192 1
628 193 1
628 197 1
629 26 1
629 36 1
629 41 1
629 71 2
629 76 1
629 100 1
629 130 1
629 136 1
629 175 1
629 190 1
629 191 1
629 196 1
630 10 1
630 17 1
630 36 1
630 81 1
630 95 1
630 106 1
630 116 1
630 119 1
630 121 1
630 125 1
630 126 2
630 127 1
630 131 1
630 134 1
630 144 1
630 157 1
630 171 1
630 181 1
630 196 1
631 11 1
631 18 1
631 21 1
631 33 1
631 53 2
631 55 1
631 100 1
631 102 1
631 119 1
631 122 1
631 135 1
631 146 1
631 172 2
631 173 1
631 176 1
631 180 1
631 184 1
631 191 1
632 3 1
632 44 1
632 56 1
632 61 1
632 83 1
632 91 1
632 144 1
632 157 1
632 178 1
633 26 1
633 32 1
633 65 1
633 68 1
633 73 1
633 91 1
633 117 1
633 138 1
633 163 1
634 12 1
634 13 1
634 45 1
634 69 1
634 80 1
634 89 1
634 90 1
634 98 1
634 127 1
634 166 1
634 179 1
634 187 1
635 8 1
635 82 1
635 86 1
635 96 1
635 122 1
635 145 1
635 167 1
635 172 1
635 185 1
636 17 1
636 19 1
636 59 1
636 64 1
636 71 1
636 77 1
636 78 1
636 81 1
636 92 1
636 94 1
636 103 1
636 119 1
636 135 2
636 178 1
636 187 1
637 14 1
637 50 1
637 66 1
637 68 1
637 81 1
637 82 1
637 112 1
637 125 2
637 128 1
637 129 1
637 134 1
637 142 1
637 183 1
637 192 1
637 194 1
637 199 1
638 20 1
638 23 1
638 36 1
638 47 1
638 60 1
638 64 1
638 67 1
638 74 1
638 78 2
638 118 1
638 119 1
638 152 1
638 183 1
638 184 1
639 81 1
639 135 1
639 154 1
640 49 1
640 72 1
640 78 1
640 91 1
640 112 1
640 145 1
640 184 1
640 200 1
641 1 1
641 6 1
641 9 1
641 17 1
641 28 1
641 43 1
641 57 2
641 64 1
641 69 1
641 78 1
641 79 1
641 92 1
641 93 1
641 108 1
641 141 1
641 147 1
641 150 1
641 151 1
641 154 1
641 167 1
642 11 1
642 12 1
642 20 1
642 25 2
642 31 1
642 38 1
642 52 1
642 83 1
642 107 1
642 110 1
642 113 2
642 117 1
642 124 1
642 155 1
642 157 1
642 168 1
642 191 1
643 23 1
643 27 1
643 44 1
643 81 1
643 145 1
643 152 1
643 157 1
643 162 1
643 169 1
644 39 1
644 54 1
644 57 1
644 72 1
644 128 2
644 148 1
644 159 1
644 169 1
644 186 1
645 5 1
645 7 1
645 19 2
645 27 1
645 88 1
645 129 1
645 130 1
645 179 1
646 9 1
646 11 1
646 25 1
646 39 1
646 43 1
646 50 2
646 64 1
646 70 1
646 90 1
646 102 1
646 107 1
646 118 2
646 126 1
646 163 2
646 174 1
646 192 1
646 194 2
647 30 1
647 50 1
647 59 1
647 60 1
647 67 3
647 75 1
647 83 1
647 86 1
647 91 1
647 100 1
647 112 1
647 180 1
647 181 2
647 198 1
647 199 1
648 20 1
648 57 1
648 58 1
648 82 1
648 123 1
648 133 1
648 140 1
648 156 1
648 163 1
648 185 1
649 5 1
649 22 1
649 39 1
649 56 1
649 69 1
649 77 1
649 162 1
649 166 1
649 179 2
649 187 1
650 5 1
650 14 1
650 49 1
650 56 1
650 71 1
650 136 1
650 160 1
650 186 1
650 194 1
650 196 1
650 199 1
651 47 1
651 53 1
651 57 1
651 92 1
651 96 1
651 101 1
651 103 1
651 149 1
651 155 1
651 184 1
651 185 1
652 10 1
652 46 1
652 79 1
652 90 1
652 139 1
652 164 1
653 14 1
653 33 1
653 91 1
653 94 1
653 131 1
653 139 1
653 195 1
653 196 1
654 19 1
654 39 1
654 42 1
654 66 1
654 111 1
654 116 1
654 124 1
654 131 1
654 132 1
654 160 1
654 174 1
654 188 1
655 29 1
655 47 1
655 67 1
655 86 1
655 90 1
655 95 1
655 159 1
655 173 1
656 3 1
656 24 1
656 25 1
656 29 1
656 55 1
656 63 1
656 65 1
656 66 1
656 78 1
656 88 1
656 90 1
656 128 1
656 139 2
656 149 1
656 154 1
657 8 1
657 12 2
657 15 1
657 25 1
657 30 1
657 38 1
657 48 1
657 51 1
657 77 1
657 115 1
657 118 1
657 165 1
657 183 1
657 194 1
657 198 1
658 2 1
658 9 1
658 20 1
658 57 1
658 69 2
658 79 2
658 84 1
658 96 1
658 105 1
658 139 1
658 143 1
658 153 1
658 186 1
658 188 2
659 39 1
659 65 2
659 77 1
659 82 1
659 120 1
659 139 1
659 170 1
659 180 1
659 181 2
659 190 1
660 26 1
660 35 1
660 36 1
660 41 1
660 58 1
660 72 1
660 85 1
660 121 2
660 122 1
660 129 1
660 132 1
660 157 1
660 170 1
660 172 2
660 197 1
661 32 1
661 43 1
661 47 1
661 67 1
661 74 1
661 77 1
661 87 1
661 115 2
661 133 1
661 143 1
661 147 1
661 188 1
661 192 1
661 194 1
662 3 1
662 21 1
662 44 1
662 47 1
662 60 1
662 66 1
662 73 1
662 98 1
662 103 1
662 120 1
662 125 1
662 134 1
662 135 1
662 145 1
662 146 1
662 165 1
662 176 1
662 199 1
663 7 1
663 57 1
663 70 1
663 71 1
663 77 2
663 81 1
663 102 1
663 115 1
663 120 1
663 148 1
663 160 1
664 27 1
664 60 1
664 84 1
664 89 1
664 94 1
664 97 2
664 120 1
664 130 1
664 137 1
664 142 1
664 145 1
664 154 1
664 157 1
664 160 1
664 168 1
664 187 1
665 6 1
665 22 1
665 31 1
665 36 1
665 54 1
665 58 1
665 74 1
665 78 1
665 88 1
665 109 1
665 110 1
665 117 1
665 133 1
665 135 1
665 147 1
665 148 1
665 166 1
665 186 1
665 189 1
666 28 1
666 32 1
666 42 1
666 122 1
666 124 1
666 125 1
666 140 1
666 167 1
666 168 1
666 169 1
666 172 1
666 184 1
667 16 1
667 17 1
667 28 1
667 70 1
667 82 1
667 99 1
667 102 1
667 111 1
667 114 1
667 124 1
667 127 1
667 135 1
667 136 1
667 142 1
667 153 1
667 154 1
667 160 1
667 161 1
667 163 1
667 171 1
667 186 1
668 16 1
668 30 1
668 31 1
668 34 1
668 63 1
668 80 1
668 119 1
668 140 1
668 147 1
668 150 1
668 161 1
668 163 1
668 177 1
668 183 1
668 186 1
668 190 1
668 196 1
669 8 1
669 30 1
669 76 1
669 97 1
669 120 1
669 140 1
669 142 1
670 5 1
670 25 1
670 30 1
670 37 1
670 86 1
670 87 1
670 111 1
670 112 1
670 144 1
670 150 1
670 175 1
670 176 1
670 188 1
671 18 1
671 40 1
671 44 1
671 50 1
671 62 1
671 66 2
671 81 1
671 96 1
671 104 1
671 106 1
671 120 1
671 145 1
671 147 1
671 164 1
671 181 1
671 194 1
672 6 1
672 12 1
672 15 1
672 18 1
672 22 1
672 23 1
672 28 1
672 40 1
672 57 1
672 65 1
672 71 2
672 74 1
672 89 1
672 107 1
672 129 1
672 145 1
672 160 1
672 169 1
672 170 1
672 172 1
672 190 1
672 195 1
673 7 1
673 14 1
673 34 1
673 54 1
673 79 1
673 83 1
673 86 1
673 88 2
673 95 1
673 119 1
673 125 1
673 133 1
673 141 1
673 173 1
673 189 1
673 194 1
674 5 2
674 16 1
674 24 1
674 29 1
674 39 1
674 48 1
674 64 1
674 72 1
674 73 1
674 104 1
674 138 1
674 144 1
674 146 1
674 180 1
675 5 1
675 16 1
675 18 1
675 19 1
675 72 1
675 78 1
675 80 1
675 85 1
675 87 1
675 91 1
675 93 2
675 97 1
675 99 1
675 108 1
675 113 1
675 118 1
675 159 1
675 162 2
675 176 1
675 197 1
676 10 1
676 60 1
676 72 1
676 73 1
676 76 1
676 78 1
676 85 1
676 139 1
676 164 1
676 176 1
676 189 1
676 192 1
676 193 1
676 194 1
677 3 1
677 13 1
677 15 1
677 54 1
677 59 1
677 68 1
677 141 1
677 161 1
678 23 1
678 28 1
678 36 1
678 43 2
678 64 2
678 80 1
678 90 1
678 108 1
678 110 1
678 118 1
678 125 1
678 135 1
678 136 1
678 141 1
678 157 1
678 163 1
678 179 1
678 182 1
679 13 1
679 17 1
679 36 1
679 49 1
679 60 1
679 68 1
679 91 1
679 102 1
679 115 1
679 117 1
679 125 1
679 136 1
679 168 1
679 173 1
679 191 1
680 5 1
680 29 1
680 33 1
680 66 1
680 68 1
680 70 1
680 84 1
680 101 1
680 112 1
680 118 1
680 119 2
680 121 1
680 124 1
680 164 1
680 167 1
681 34 1
681 53 1
681 61 1
681 89 1
681 107 1
681 117 1
681 118 1
681 122 1
681 137 1
681 152 1
681 179 1
681 192 1
682 2 1
682 4 2
682 13 1
682 39 1
682 43 1
682 44 1
682 62 1
682 72 1
682 76 1
682 95 1
682 109 1
682 114 1
682 133 1
682 141 1
682 147 1
682 148 1
682 159 1
683 11 1
683 35 1
683 61 2
683 70 2
683 93 1
683 95 2
683 99 1
683 109 1
683 171 1
683 186 1
684 22 1
684 28 1
684 35 1
684 65 1
684 90 1
684 94 1
684 98 1
684 101 1
684 110 1
684 133 1
684 182 1
685 22 1
685 23 1
685 27 1
685 43 1
685 47 1
685 80 1
685 104 1
685 116 1
685 179 1
686 51 1
686 88 2
686 106 1
686 110 1
686 140 1
686 157 1
686 172 1
686 192 1
687 46 1
687 54 1
687 60 1
687 67 1
687 101 1
687 103 1
687 154 1
687 183 1
688 6 1
688 14 1
688 23 1
688 25 1
688 34 1
688 51 1
688 67 1
688 69 1
688 71 1
688 76 2
688 101 1
688 103 1
688 105 1
688 110 1
688 129 1
688 142 1
688 155 1
688 166 1
688 183 1
688 192 1
688 198 1
689 41 1
689 61 1
689 66 1
689 74 2
689 78 1
689 82 1
689 83 2
689 87 2
689 96 1
689 127 2
689 184 3
689 185 1
689 187 1
690 26 1
690 53 1
690 57 1
690 70 1
690 101 1
690 119 1
690 133 1
690 140 1
690 158 1
690 182 1
691 25 2
691 45 1
691 72 1
691 73 1
691 81 2
691 101 1
691 119 1
691 130 1
691 135 1
691 155 1
692 57 1
692 65 1
692 74 1
692 89 2
692 93 1
692 110 1
692 116 2
692 125 1
692 133 1
692 141 1
692 182 1
693 56 1
693 57 1
693 74 1
693 91 1
693 96 1
693 141 2
693 147 1
693 175 1
693 181 2
694 2 1
694 7 1
694 13 1
694 17 1
694 20 1
694 37 1
694 47 1
694 82 1
694 91 1
694 106 1
694 114 1
694 119 1
694 141 1
694 197 1
695 17 1
695 21 1
695 40 1
695 47 1
695 60 2
695 61 1
695 71 1
695 76 2
695 88 1
695 102 1
695 144 1
695 167 1
695 178 1
695 199 1
696 1 2
696 8 1
696 23 1
696 32 1
696 33 1
696 51 1
696 67 1
696 75 1
696 79 2
696 80 1
696 102 1
696 115 1
696 118 1
696 127 1
696 132 1
696 140 1
696 143 1
696 153 1
696 156 1
696 157 1
696 189 1
696 196 1
696 200 1
697 17 1
697 39 1
697 52 1
697 90 1
697 96 1
697 103 1
697 140 1
697 159 1
697 179 1
697 197 1
698 2 1
698 40 1
698 45 1
698 49 1
698 78 1
698 98 1
698 100 1
698 130 2
698 135 1
698 146 1
698 147 1
698 170 1
698 183 1
698 185 1
698 195 1
699 67 1
699 109 1
699 114 1
699 128 1
699 130 1
699 137 1
699 173 1
699 186 2
700 26 1
700 27 1
700 31 2
700 36 1
700 40 1
700 41 2
700 50 1
700 114 1
700 115 1
700 119 1
700 123 1
700 137 1
700 141 1
700 159 1
701 5 1
701 25 1
701 45 1
701 72 1
701 87 1
701 93 1
701 114 1
701 115 1
701 123 1
701 124 1
701 129 1
701 130 1
701 154 1
701 156 1
701 166 1
701 188 1
701 194 1
701 198 1
702 8 1
702 14 1
702 31 1
702 64 1
702 65 1
702 67 1
702 85 1
702 86 1
702 106 1
702 121 1
702 139 1
702 168 1
702 179 1
702 187 1
702 198 1
703 10 1
703 14 2
703 30 1
703 33 1
703 64 1
703 68 1
703 69 1
703 76 1
703 85 1
703 132 1
703 138 1
703 155 1
703 159 1
703 178 1
703 186 1
704 8 1
704 20 1
704 44 1
704 55 1
704 83 1
704 95 1
704 100 2
704 103 1
704 110 1
704 114 1
704 140 1
704 143 1
704 146 1
704 157 1
705 13 1
705 23 1
705 59 1
705 72 1
705 77 1
705 109 1
705 110 1
705 117 1
705 138 1
705 141 2
705 178 1
705 188 1
705 190 1
705 194 1
706 40 1
706 62 1
706 80 1
706 99 1
706 199 1
707 40 1
707 59 1
707 61 1
707 82 1
707 83 1
707 95 1
707 101 1
707 120 1
707 122 1
707 125 1
707 128 1
707 138 1
707 190 1
708 7 1
708 23 1
708 30 1
708 45 1
708 50 1
708 73 1
708 75 1
708 79 1
708 92 1
708 109 1
708 126 1
708 139 1
708 180 1
708 184 1
708 190 1
709 2 1
709 4 1
709 45 1
709 47 1
709 52 1
709 64 2
709 81 1
709 85 1
709 106 1
709 113 1
709 122 1
709 124 1
709 156 1
709 163 1
709 169 2
709 177 1
709 189 1
709 192 1
710 4 1
710 11 1
710 16 1
710 21 1
710 46 1
710 66 1
710 99 1
710 103 1
710 109 1
710 115 1
710 132 1
710 160 1
710 174 1
710 185 1
710 200 1
711 15 1
711 30 1
711 35 1
711 43 1
711 80 2
711 116 1
711 117 1
711 118 1
711 150 1
711 155 1
711 175 1
711 198 1
712 7 1
712 14 1
712 22 1
712 26 1
712 35 1
712 51 1
712 55 1
712 62 1
712 114 1
712 117 1
712 123 1
712 144 1
712 150 1
713 35 1
713 53 1
713 100 1
713 108 1
713 130 1
713 152 1
713 158 1
713 159 1
714 2 1
714 18 1
714 26 1
714 70 1
714 73 1
714 87 1
714 112 2
714 123 1
714 142 1
714 152 1
714 153 1
714 156 1
714 158 1
714 189 1
715 2 1
715 11 1
715 14 1
715 18 1
715 55 2
715 69 1
715 94 2
715 104 1
715 136 1
715 137 1
715 139 1
715 140 1
715 143 1
715 144 1
715 164 1
715 178 1
716 10 1
716 35 1
716 44 1
716 60 1
716 71 1
716 75 1
716 87 1
716 88 1
716 103 2
716 132 1
716 173 1
716 192 1
716 193 1
717 2 1
717 5 1
717 8 1
717 9 1
717 11 1
717 36 2
717 40 1
717 69 1
717 80 1
717 101 1
717 114 1
717 190 1
717 198 1
718 15 1
718 89 1
718 106 3
718 119 1
718 122 1
718 139 1
718 144 1
718 173 1
718 187 1
719 8 2
719 12 1
719 18 1
719 23 1
719 37 1
719 45 1
719 50 1
719 71 2
719 78 1
719 84 1
719 111 2
719 117 1
719 137 1
719 142 1
719 143 1
719 150 1
719 154 1
719 178 1
719 185 1
719 186 1
720 3 1
720 31 1
720 47 1
720 66 1
720 105 1
720 111 1
720 115 1
720 129 1
720 156 1
721 5 1
721 9 1
721 30 1
721 73 1
721 76 1
721 84 1
721 85 1
721 91 1
721 92 1
721 139 1
721 145 1
721 162 1
721 171 1
722 4 1
722 17 1
722 40 1
722 55 1
722 62 1
722 117 1
722 130 1
722 131 1
722 140 1
722 155 1
722 157 1
722 160 1
722 162 1
722 183 1
722 191 1
722 192 1
723 23 1
723 24 1
723 30 1
723 39 1
723 44 1
723 48 1
723 91 1
723 92 1
723 113 1
723 116 1
723 140 1
723 141 1
723 154 1
723 167 1
723 196 1
724 1 1
724 2 1
724 4 1
724 10 1
724 32 1
724 39 1
724 68 1
724 72 1
724 86 1
724 101 1
724 136 2
724 162 1
724 189 1
725 6 1
725 36 1
725 77 2
725 87 1
725 88 1
725 102 1
725 140 1
725 142 1
725 152 1
725 172 1
725 182 1
725 198 2
726 1 1
726 3 1
726 5 1
726 20 1
726 27 2
726 28 1
726 41 1
726 59 1
726 60 1
726 122 1
726 132 1
726 143 1
726 161 1
726 163 1
726 182 1
726 185 1
727 12 1
727 22 1
727 30 1
727 36 1
727 57 1
727 73 1
727 91 1
727 100 1
727 108 1
727 133 1
727 140 1
727 185 1
728 27 1
728 55 1
728 78 1
728 102 1
728 130 2
728 146 1
728 149 1
728 196 1
729 7 1
729 23 1
729 40 1
729 54 1
729 67 2
729 70 1
729 72 1
729 89 1
729 94 1
729 108 1
729 110 1
729 157 1
729 167 1
729 169 1
729 171 1
729 172 1
729 183 1
729 187 1
729 189 1
729 191 1
729 192 1
729 195 1
730 8 1
730 32 1
730 49 1
730 55 1
730 65 1
730 93 1
730 101 1
730 116 1
730 155 1
730 161 1
730 168 1
730 178 1
730 180 1
730 181 1
730 187 1
730 198 1
730 200 1
731 13 1
731 38 1
731 57 1
731 109 1
731 113 1
731 147 1
731 148 1
732 7 1
732 12 1
732 67 1
732 76 2
732 77 1
732 81 1
732 91 1
732 118 1
732 121 1
732 124 1
732 176 1
732 179 1
732 197 2
732 200 1
733 12 1
733 43 1
733 52 1
733 54 1
733 79 1
733 90 1
733 91 1
733 94 1
733 101 1
733 110 1
733 193 1
734 18 1
734 26 1
734 32 1
734 54 1
734 57 1
734 75 1
734 95 1
734 107 1
734 125 1
734 147 1
734 157 1
734 163 1
734 171 1
734 174 2
734 190 1
735 3 1
735 9 1
735 49 1
735 56 1
735 59 1
735 62 1
735 78 1
735 92 1
735 95 1
735 122 1
735 134 1
735 144 1
735 177 1
735 181 1
735 190 1
736 11 1
736 18 1
736 34 1
736 51 1
736 52 1
736 57 1
736 61 1
736 86 1
736 97 1
736 104 1
736 132 1
736 140 1
736 156 1
736 160 1
736 166 1
736 171 1
736 189 1
736 193 1
737 1 1
737 3 1
737 9 1
737 20 1
737 45 1
737 63 1
737 66 1
737 97 1
737 106 1
737 107 1
737 108 1
737 121 1
737 144 1
737 185 1
738 20 1
738 49 1
738 58 1
738 66 1
738 78 1
738 89 1
738 93 1
738 115 1
738 131 1
738 143 2
738 144 1
738 168 1
738 172 1
739 4 1
739 12 1
739 68 1
739 94 1
739 141 1
739 155 1
739 158 1
739 196 1
740 9 1
740 31 1
740 36 1
740 39 1
740 45 1
740 98 1
740 117 1
740 122 1
740 124 1
740 129 1
740 140 1
740 149 1
740 168 1
741 1 1
741 69 1
741 81 1
741 90 1
741 98 1
741 101 1
741 104 1
741 118 1
741 122 1
741 123 1
741 132 1
741 133 1
741 140 1
741 159 1
741 166 1
741 182 1
741 190 1
742 11 2
742 56 1
742 58 1
742 109 1
742 111 1
742 133 1
742 155 1
742 180 1
742 187 1
742 188 1
743 8 2
743 10 1
743 16 1
743 17 1
743 27 2
743 32 1
743 42 1
743 43 1
743 71 1
743 75 1
743 79 1
743 85 1
743 91 1
743 93 1
743 104 2
743 117 1
743 118 1
743 163 1
743 192 1
744 6 1
744 8 1
744 22 1
744 37 1
744 39 1
744 41 1
744 57 1
744 69 1
744 71 1
744 78 1
744 108 1
744 111 1
744 133 1
744 135 1
744 138 1
744 142 1
744 163 1
744 178 1
744 187 1
745 1 1
745 3 1
745 4 1
745 39 1
745 54 1
745 58 1
745 68 1
745 69 1
745 101 1
745 109 1
745 131 1
745 152 1
745 172 1
745 185 1
745 191 2
746 51 1
746 78 1
746 94 1
746 103 1
746 120 1
746 126 1
746 131 1
746 134 1
746 139 1
746 155 1
746 159 1
746 188 2
747 15 1
747 17 1
747 27 1
747 32 1
747 66 1
747 72 1
747 92 1
747 103 1
747 104 1
747 120 1
747 143 1
747 171 1
747 172 1
747 174 1
747 178 1
747 179 1
747 193 1
747 194 1
747 195 1
748 8 1
748 29 1
748 51 1
748 64 1
748 65 1
748 78 1
748 85 1
748 132 1
748 154 1
748 170 1
749 6 1
749 15 1
749 34 1
749 43 1
749 46 1
749 80 1
749 177 1
749 180 1
749 191 1
749 192 1
749 194 1
750 36 1
750 38 1
750 122 1
750 126 1
750 175 1
750 185 1
750 186 1
751 20 1
751 37 1
751 38 1
751 57 1
751 94 1
751 114 1
751 128 1
751 146 1
751 147 1
751 153 1
751 157 1
751 163 1
751 165 1
751 178 1
752 2 1
752 82 1
752 84 1
752 88 1
752 93 1
752 119 1
752 135 2
752 145 1
752 161 1
752 166 1
752 174 1
752 176 1
752 180 1
752 181 1
753 4 1
753 7 1
753 9 1
753 18 1
753 23 1
753 33 1
753 38 1
753 40 1
753 65 1
753 68 1
753 84 1
753 108 2
753 109 1
753 123 1
753 129 1
753 131 1
753 152 1
753 155 1
753 159 2
753 166 1
753 173 1
753 179 1
753 181 1
754 25 1
754 32 1
754 33 1
754 44 1
754 47 1
754 62 2
754 87 1
754 93 1
754 134 1
754 159 1
754 171 1
754 187 1
755 13 1
755 31 1
755 51 1
755 62 1
755 65 1
755 75 1
755 80 1
755 92 1
755 119 1
755 135 1
755 164 1
755 174 1
755 188 1
755 192 1
756 11 1
756 12 1
756 16 1
756 20 1
756 30 1
756 74 1
756 76 1
756 78 1
756 79 1
756 120 1
756 126 2
756 131 1
756 139 1
756 146 1
756 172 2
756 197 1
757 1 1
757 49 1
757 58 1
757 61 1
757 63 1
757 71 1
757 89 1
757 98 1
757 103 1
757 108 1
757 144 2
757 150 1
757 159 1
757 168 1
757 169 1
757 194 1
757 199 1
758 8 1
758 22 1
758 48 1
758 57 1
758 67 1
758 84 1
758 92 1
758 94 1
758 98 1
758 109 1
758 138 1
758 149 1
758 151 1
758 153 1
758 158 1
758 183 1
758 197 1
759 39 1
759 46 1
759 47 2
759 63 1
759 90 1
759 116 1
759 139 2
759 151 1
759 153 2
759 165 1
759 186 1
759 200 1
760 4 1
760 40 1
760 56 1
760 70 1
760 82 1
760 87 2
760 136 1
760 143 1
760 145 1
760 153 1
760 157 1
760 159 2
760 167 1
760 179 1
761 18 1
761 33 2
761 35 1
761 36 1
761 44 1
761 59 1
761 106 1
761 108 1
761 131 1
761 139 1
761 162 1
761 172 2
762 1 1
762 7 1
762 14 1
762 22 1
762 36 1
762 45 2
762 83 1
762 87 1
762 91 2
762 148 1
762 158 1
762 198 1
763 5 1
763 25 1
763 41 1
763 43 1
763 46 1
763 78 1
763 83 1
763 105 1
763 109 1
763 111 1
763 117 1
763 121 1
763 131 1
763 156 1
763 171 1
763 181 1
764 95 1
764 96 1
764 98 1
764 110 1
764 116 1
764 124 1
764 163 1
764 190 1
764 191 1
764 194 1
765 44 1
765 62 1
765 76 1
765 122 1
765 123 1
765 129 1
765 139 1
765 189 1
766 24 1
766 27 1
766 38 1
766 70 1
766 86 1
766 120 1
766 135 1
766 138 1
766 145 1
766 146 1
766 150 1
766 168 1
766 197 1
767 2 1
767 3 1
767 8 1
767 18 1
767 68 1
767 98 1
767 104 1
767 107 1
767 108 1
767 138 1
767 150 1
767 156 1
768 20 1
768 27 1
768 29 1
768 37 2
768 42 1
768 53 1
768 58 1
768 59 1
768 90 1
768 95 1
768 99 1
768 107 1
768 114 1
768 167 1
768 168 1
768 195 1
768 199 1
769 7 1
769 9 1
769 12 1
769 32 1
769 33 1
769 34 1
769 48 1
769 55 1
769 88 1
769 102 1
769 103 1
769 131 1
769 136 1
769 149 1
769 162 2
769 167 1
769 172 1
769 179 1
770 15 1
770 19 1
770 26 1
770 69 1
770 70 1
770 109 1
770 110 1
770 114 1
770 125 1
770 130 1
770 135 1
770 162 1
770 173 1
770 192 1
770 194 1
771 3 1
771 21 1
771 37 1
771 56 1
771 86 1
771 91 1
771 111 1
771 124 1
771 129 1
771 159 1
771 171 1
771 174 1
771 195 1
772 16 1
772 21 1
772 22 1
772 45 1
772 48 1
772 51 1
772 63 1
772 99 1
772 102 1
772 105 1
772 114 1
772 128 1
772 130 1
772 151 1
772 188 1
773 12 1
773 17 1
773 47 1
773 82 1
773 102 1
773 103 1
773 150 1
773 163 1
773 168 1
773 177 1
773 183 1
773 184 1
774 12 2
774 34 1
774 78 1
774 83 1
774 84 1
774 90 1
774 110 1
774 114 1
774 121 1
774 182 1
774 192 1
775 8 1
775 10 1
775 18 1
775 21 1
775 48 1
775 72 1
775 102 1
775 131 1
775 156 1
775 172 1
775 185 1
775 189 1
776 22 1
776 25 1
776 29 1
776 49 1
776 69 1
776 72 1
776 119 1
776 123 1
776 131 1
776 144 1
776 149 1
776 161 1
776 170 1
776 174 1
776 180 1
776 182 1
776 189 1
777 6 1
777 35 1
777 59 1
777 69 1
777 76 1
777 86 1
777 96 1
777 109 1
777 132 1
777 135 1
777 155 1
777 156 1
777 199 1
778 15 2
778 19 1
778 24 1
778 35 1
778 53 2
778 60 1
778 76 1
778 90 1
778 99 1
778 120 1
778 139 1
778 167 1
778 170 1
778 177 1
778 181 1
778 191 1
778 195 1
779 11 1
779 37 1
779 40 1
779 41 1
779 47 1
779 48 1
779 57 1
779 65 1
779 92 1
779 112 1
779 113 1
779 137 1
779 141 1
779 155 1
779 159 2
780 33 1
780 37 1
780 53 1
780 105 1
780 118 1
780 142 1
780 156 1
780 170 1
781 70 1
781 82 1
781 99 1
781 121 1
781 141 1
781 151 1
781 165 1
781 172 2
781 173 1
781 194 1
781 199 1
782 9 1
782 19 1
782 42 1
782 56 1
782 57 1
782 68 1
782 73 1
782 94 1
782 114 1
782 117 1
782 125 1
782 128 1
783 7 1
783 10 1
783 33 1
783 46 1
783 51 1
783 91 1
783 98 1
783 103 1
783 141 1
783 146 1
783 153 1
784 24 1
784 31 2
784 37 1
784 41 1
784 45 1
784 66 1
784 68 1
784 69 1
784 88 1
784 92 1
784 95 1
784 102 1
784 121 1
784 133 1
784 168 1
785 11 1
785 16 1
785 22 1
785 23 1
785 52 1
785 57 1
785 71 1
785 133 1
785 139 2
785 153 1
785 185 1
786 6 1
786 33 1
786 36 1
786 38 1
786 42 1
786 52 1
786 78 1
786 87 1
786 90 1
786 107 1
786 127 1
786 128 1
786 151 1
786 158 1
786 195 1
787 34 1
787 36 1
787 44 1
787 48 1
787 66 1
787 75 1
787 78 2
787 83 1
787 91 1
787 94 1
787 103 1
787 113 1
787 144 1
787 148 1
787 153 1
787 159 2
787 185 1
788 18 1
788 23 1
788 31 1
788 37 1
788 48 1
788 57 1
788 88 1
788 89 1
788 107 1
788 109 1
788 121 1
788 140 1
788 151 1
788 168 1
788 173 1
788 199 1
788 200 1
789 15 1
789 22 1
789 30 1
789 76 1
789 90 1
789 126 1
789 195 1
790 25 1
790 35 1
790 83 1
790 115 1
790 120 1
790 148 1
790 160 1
790 169 1
790 171 1
790 174 2
790 185 1
790 187 2
791 15 1
791 19 1
791 32 1
791 35 1
791 37 1
791 39 1
791 49 1
791 76 1
791 100 1
791 115 2
791 131 1
791 158 1
791 159 1
791 166 1
791 185 1
792 3 1
792 15 1
792 19 1
792 41 1
792 52 1
792 89 1
792 106 1
792 144 1
792 169 1
792 174 1
793 6 1
793 28 1
793 50 1
793 67 1
793 79 1
793 85 1
793 94 1
793 125 2
793 185 1
793 191 1
794 58 1
794 67 1
794 83 1
794 88 1
794 118 1
794 149 1
794 166 1
794 193 1
794 194 1
795 35 1
795 38 1
795 59 1
795 73 1
795 75 2
795 83 1
795 104 2
795 119 1
795 123 1
795 143 1
795 150 1
795 166 2
795 173 1
795 180 1
796 15 1
796 44 1
796 46 1
796 47 1
796 48 1
796 73 1
796 87 1
796 124 1
796 136 1
796 144 1
796 148 1
796 179 1
797 7 1
797 9 2
797 12 1
797 13 1
797 14 1
797 55 1
797 72 1
797 95 1
797 98 1
797 128 1
797 136 1
797 140 1
797 146 1
797 176 1
797 186 1
797 189 1
797 199 1
798 5 1
798 40 1
798 52 1
798 104 1
798 129 1
798 132 1
798 176 1
799 9 1
799 15 1
799 40 1
799 84 2
799 88 1
799 96 1
799 97 1
799 99 1
799 102 1
799 110 1
799 118 1
799 120 1
799 129 1
799 144 1
799 165 1
799 170 1
799 180 1
799 181 1
799 188 1
800 2 1
800 17 1
800 69 1
800 72 1
800 93 1
800 104 1
800 112 1
800 117 1
800 123 1
800 125 1
800 131 1
800 138 1
800 142 1
800 152 1
800 155 1
800 165 1
800 168 1
800 196 1
801 3 1
801 6 1
801 33 1
801 50 1
801 78 1
801 94 1
801 142 1
801 163 1
801 185 1
801 197 1
802 15 1
802 17 2
802 48 1
802 59 1
802 77 1
802 81 1
802 89 1
802 106 1
802 121 1
802 125 1
802 168 1
802 180 1
802 182 1
802 183 1
802 192 1
802 193 1
803 2 1
803 6 1
803 30 1
803 31 1
803 49 1
803 65 1
803 102 1
803 105 1
803 126 1
803 132 1
803 152 1
803 163 1
803 180 1
803 185 1
803 186 1
804 1 1
804 12 1
804 13 1
804 52 1
804 83 1
804 123 1
804 129 1
804 150 1
804 179 1
805 15 1
805 28 1
805 31 1
805 67 1
805 86 1
805 97 1
805 130 1
805 144 1
805 147 1
805 157 1
805 171 1
805 174 1
805 191 1
805 196 1
806 10 1
806 66 2
806 70 1
806 73 1
806 109 1
806 117 1
806 123 1
806 149 1
806 151 1
806 190 1
807 1 1
807 4 1
807 28 1
807 52 1
807 63 1
807 67 1
807 85 1
807 86 1
807 90 1
807 92 1
807 112 1
807 115 1
807 121 1
807 122 1
807 134 1
807 136 1
807 148 1
807 151 1
807 161 1
807 174 1
807 176 1
807 186 1
808 3 1
808 4 1
808 6 1
808 30 1
808 33 1
808 38 1
808 47 1
808 70 1
808 86 1
808 121 1
808 136 1
808 145 1
808 148 1
808 152 1
808 160 1
808 162 1
808 167 1
808 178 1
808 199 1
809 15 1
809 16 2
809 44 1
809 61 2
809 68 1
809 75 1
809 94 1
809 143 1
809 198 1
809 200 1
810 4 1
810 6 1
810 9 1
810 13 1
810 48 1
810 65 1
810 73 1
810 84 1
810 109 1
810 121 1
810 126 2
810 131 1
810 165 1
810 183 1
811 1 1
811 10 1
811 18 1
811 24 1
811 37 1
811 42 2
811 45 2
811 105 1
811 106 1
811 107 2
811 122 1
811 143 1
811 146 1
811 150 1
811 152 1
811 177 2
811 183 2
812 1 1
812 12 1
812 13 1
812 22 2
812 23 1
812 30 1
812 53 1
812 81 1
812 88 1
812 100 1
812 105 1
812 115 1
812 131 1
812 143 1
813 14 1
813 33 1
813 100 1
813 130 1
813 144 1
813 154 1
813 163 1
813 166 1
813 172 1
813 175 1
813 191 1
813 196 1
814 18 1
814 22 1
814 25 1
814 34 1
814 47 1
814 63 1
814 93 1
814 95 1
814 131 1
814 136 1
814 143 1
814 152 1
814 163 1
814 169 1
814 172 1
814 173 1
814 182 1
814 197 2
815 28 1
815 30 1
815 35 1
815 61 1
815 62 1
815 68 2
815 70 1
815 78 1
815 113 1
815 126 1
815 147 1
815 168 1
815 180 1
815 184 1
815 196 1
816 21 1
816 22 1
816 27 1
816 36 1
816 40 1
816 65 2
816 75 1
816 85 1
816 112 1
816 141 1
816 155 1
816 168 1
816 186 2
816 187 2
816 190 1
816 192 1
817 25 1
817 38 1
817 43 1
817 63 1
817 75 1
817 76 1
817 80 1
817 117 1
817 122 1
817 141 1
817 147 1
817 151 1
817 175 1
817 177 1
817 190 1
817 198 1
818 18 1
818 23 1
818 24 2
818 25 1
818 39 1
818 45 1
818 112 1
818 116 1
818 123 1
818 146 1
818 147 1
818 152 1
818 161 1
818 175 1
819 22 2
819 25 1
819 26 1
819 43 1
819 68 1
819 79 1
819 81 2
819 86 1
819 91 1
819 112 1
819 117 1
819 150 1
819 157 1
819 159 1
819 178 1
820 23 1
820 33 1
820 69 1
820 76 1
820 78 1
820 98 1
820 141 1
820 164 1
820 191 1
821 11 1
821 22 1
821 28 1
821 35 1
821 41 1
821 51 1
821 66 1
821 70 1
821 82 1
821 94 1
821 110 1
821 160 1
821 170 1
821 189 1
822 26 1
822 27 1
822 35 1
822 60 1
822 88 1
822 130 1
822 151 1
822 170 1
822 183 1
823 1 1
823 12 1
823 19 1
823 28 2
823 44 2
823 56 1
823 98 1
823 101 1
823 121 1
823 156 1
823 158 1
823 162 1
823 163 1
823 181 1
824 29 1
824 41 1
824 55 1
824 58 1
824 65 1
824 97 1
824 105 2
824 123 1
824 142 2
824 160 1
824 172 1
824 177 1
824 187 1
825 44 1
825 59 1
825 79 1
825 83 1
825 101 1
825 102 1
825 114 1
825 118 1
825 147 2
825 153 1
825 159 1
825 168 1
825 169 1
825 177 2
826 6 1
826 31 1
826 40 1
826 46 1
826 65 1
826 67 1
826 86 1
826 93 1
826 97 1
826 134 1
826 162 1
826 170 1
826 180 1
826 187 1
827 2 2
827 19 1
827 30 1
827 39 1
827 46 1
827 49 1
827 79 1
827 84 1
827 103 1
827 119 1
827 164 1
827 171 1
827 175 1
827 180 1
827 183 2
827 184 1
828 10 1
828 49 1
828 56 1
828 82 1
828 88 1
828 98 1
828 102 1
828 128 1
828 145 1
828 157 1
828 159 1
828 197 1
829 17 1
829 38 1
829 60 2
829 80 1
829 91 1
829 95 1
829 129 1
829 133 1
829 149 1
829 161 1
829 171 1
829 172 1
829 182 1
829 189 1
830 4 1
830 8 1
830 17 1
830 20 1
830 70 1
830 76 1
830 89 1
830 99 1
830 109 1
830 131 1
830 132 1
830 151 1
830 177 1
830 182 1
830 199 1
831 2 1
831 10 1
831 24 1
831 33 1
831 46 1
831 58 1
831 63 1
831 90 1
831 100 1
831 110 1
831 111 1
831 124 1
831 144 1
831 149 1
831 168 1
831 180 1
832 3 1
832 6 1
832 55 1
832 77 1
832 83 1
832 127 2
832 131 1
832 134 1
832 151 1
832 157 1
832 181 1
832 194 1
833 12 1
833 16 1
833 18 1
833 25 1
833 40 1
833 47 1
833 49 1
833 75 1
833 78 1
833 80 1
833 88 1
833 109 1
833 110 1
833 113 1
833 127 1
833 146 1
833 159 1
833 161 1
833 175 1
833 191 1
833 199 1
834 23 1
834 28 1
834 32 1
834 38 1
834 55 1
834 72 1
834 79 1
834 83 2
834 94 1
834 100 1
834 105 1
834 128 1
834 129 1
834 140 1
834 175 1
834 177 1
834 187 1
834 189 1
835 6 1
835 9 1
835 32 1
835 49 1
835 68 1
835 85 1
835 113 1
835 120 1
835 148 1
835 155 1
835 169 1
835 173 1
835 179 1
835 191 1
835 192 1
836 12 1
836 13 1
836 27 1
836 34 1
836 35 1
836 36 1
836 52 1
836 65 1
836 67 1
836 78 1
836 119 1
836 121 1
836 122 2
836 143 1
836 148 1
836 152 1
837 20 2
837 52 1
837 91 1
837 101 1
837 140 1
837 147 1
837 151 1
837 156 1
837 164 1
837 172 1
837 177 1
837 195 1
838 9 1
838 12 1
838 31 1
838 42 1
838 109 1
838 176 1
838 187 1
839 7 1
839 17 1
839 31 1
839 40 1
839 50 1
839 74 1
839 88 1
839 131 1
839 134 1
839 135 1
839 149 1
839 174 1
839 175 1
840 24 1
840 44 1
840 56 1
840 117 1
840 132 1
840 140 1
840 163 1
840 165 2
841 5 1
841 10 1
841 41 1
841 50 1
841 62 1
841 65 1
841 73 1
841 77 1
841 94 2
841 109 1
841 118 2
841 126 1
841 142 2
841 143 1
841 146 1
841 147 1
841 162 1
842 2 1
842 34 1
842 127 1
842 130 1
842 131 1
842 154 1
842 173 1
843 22 1
843 23 1
843 39 1
843 50 2
843 60 1
843 72 1
843 79 1
843 82 1
843 130 1
843 135 1
843 137 1
843 161 1
844 9 1
844 10 1
844 13 1
844 16 1
844 28 1
844 34 1
844 100 1
844 106 1
844 129 1
844 144 1
844 145 1
844 146 1
844 151 1
844 183 1
844 188 1
844 197 1
844 198 1
845 1 2
845 9 1
845 38 1
845 42 1
845 50 1
845 76 1
845 77 1
845 85 1
845 87 1
845 91 1
845 96 1
845 104 1
845 107 1
845 112 1
845 147 1
845 155 1
845 168 1
845 172 1
845 173 1
845 180 1
845 193 1
846 36 1
846 79 1
846 83 2
846 106 1
846 107 1
846 123 1
846 147 1
846 157 1
846 169 1
846 191 1
846 199 1
847 19 1
847 28 1
847 29 1
847 36 1
847 51 1
847 54 1
847 63 1
847 75 1
847 76 1
847 81 1
847 101 1
847 112 1
847 119 1
847 129 2
847 138 1
847 157 1
848 13 1
848 14 1
848 19 2
848 46 1
848 54 1
848 61 1
848 100 1
848 104 1
848 152 1
848 156 1
848 165 1
848 168 1
848 200 2
849 10 1
849 39 1
849 48 1
849 123 1
849 155 1
850 53 1
850 54 1
850 107 1
850 119 1
850 130 1
851 1 1
851 10 1
851 18 2
851 23 1
851 38 1
851 40 1
851 41 1
851 44 1
851 45 2
851 56 1
851 64 1
851 75 1
851 76 1
851 84 1
851 93 1
851 98 1
851 104 1
851 128 1
851 137 1
851 142 1
851 152 1
851 174 1
851 175 1
851 190 1
852 8 1
852 12 1
852 23 1
852 42 1
852 54 2
852 62 1
852 102 1
852 144 1
853 2 1
853 8 2
853 10 1
853 20 1
853 44 1
853 52 1
853 64 1
853 87 1
853 121 1
853 127 1
853 164 1
853 172 1
853 174 1
854 24 1
854 29 1
854 35 1
854 70 1
854 71 2
854 80 1
854 94 2
854 102 1
854 121 1
854 128 1
854 147 1
854 148 1
854 153 1
854 161 1
854 180 1
854 194 1
854 197 1
855 35 1
855 38 1
855 48 1
855 66 1
855 74 1
855 105 1
855 110 1
855 116 1
855 130 1
855 143 1
855 160 1
855 169 1
855 200 1
856 4 1
856 32 1
856 87 1
856 114 1
856 121 1
856 135 1
856 139 1
856 144 1
856 156 1
856 164 1
856 166 1
856 169 1
857 5 1
857 16 1
857 41 1
857 42 1
857 43 1
857 61 1
857 64 1
857 66 1
857 75 1
857 97 1
857 101 1
857 104 1
857 135 1
857 136 1
857 149 1
857 186 2
857 194 1
858 2 1
858 15 1
858 16 1
858 19 1
858 22 1
858 27 1
858 33 1
858 36 1
858 37 1
858 56 1
858 72 1
858 91 1
858 105 1
858 139 1
858 147 1
858 153 1
858 168 1
858 173 1
858 185 1
858 195 1
859 38 1
859 42 1
859 75 1
859 89 1
859 120 1
859 135 1
859 136 1
859 141 1
859 160 1
859 179 2
859 190 1
859 192 1
859 199 1
860 18 1
860 37 1
860 49 1
860 58 1
860 150 1
860 167 1
860 169 2
860 195 1
861 6 1
861 73 1
861 76 2
861 84 1
861 87 1
861 124 1
861 136 1
861 145 1
861 146 1
861 148 1
861 151 1
861 171 1
861 172 1
862 40 1
862 63 1
862 85 2
862 90 1
862 94 2
862 116 1
862 130 1
862 133 1
862 134 1
862 178 1
862 186 1
862 192 2
862 197 1
863 4 1
863 39 1
863 64 1
863 75 1
863 99 2
863 102 1
863 108 1
863 110 1
863 114 1
863 116 1
863 121 1
863 134 1
863 138 1
863 142 1
863 158 1
863 168 1
863 173 1
863 174 1
864 14 1
864 43 1
864 48 1
864 58 1
864 81 1
864 82 1
864 97 1
864 101 1
864 117 1
864 119 2
864 121 1
864 128 1
864 129 1
864 147 1
864 154 1
864 161 1
864 177 1
864 179 1
865 22 1
865 34 1
865 53 1
865 59 1
865 91 1
865 92 1
865 94 1
865 101 1
865 105 1
865 173 1
866 1 1
866 9 1
866 20 1
866 21 1
866 34 1
866 52 1
866 62 1
866 63 1
866 94 1
866 124 1
866 161 1
866 162 1
866 172 1
866 184 1
867 28 1
867 45 1
867 57 1
867 67 1
867 95 1
867 131 1
868 6 1
868 55 1
868 57 1
868 59 1
868 79 1
868 107 3
868 115 1
868 135 1
868 146 1
868 161 1
868 164 1
868 173 1
868 196 1
869 14 1
869 22 2
869 28 1
869 32 1
869 37 1
869 40 2
869 79 1
869 86 1
869 106 1
869 111 1
869 124 1
869 125 1
870 33 1
870 34 1
870 80 1
870 83 1
870 100 1
870 101 1
870 105 1
870 112 1
870 124 2
870 151 1
870 163 1
870 173 1
870 195 1
871 17 1
871 38 1
871 47 2
871 49 1
871 50 1
871 54 1
871 65 1
871 95 1
871 96 1
871 109 1
871 137 2
871 142 1
871 151 1
871 155 1
871 186 1
871 195 1
872 10 1
872 26 1
872 36 1
872 37 1
872 65 1
872 86 1
872 101 1
872 134 1
872 137 1
872 179 1
872 181 1
872 197 1
873 5 2
873 12 1
873 21 1
873 35 1
873 47 1
873 92 2
873 98 1
873 103 1
873 126 1
873 127 1
873 134 1
873 162 1
873 174 1
874 4 1
874 5 1
874 8 1
874 17 1
874 19 1
874 20 1
874 32 1
874 45 1
874 81 1
874 91 1
874 101 1
874 143 1
874 146 1
874 152 1
874 170 1
874 184 1
874 194 1
875 9 1
875 21 1
875 43 1
875 47 1
875 59 1
875 73 1
875 92 1
875 95 1
875 137 1
875 158 1
875 188 1
875 200 1
876 6 1
876 16 1
876 31 1
876 35 1
876 40 1
876 44 1
876 49 1
876 51 1
876 66 1
876 77 1
876 83 1
876 90 1
876 107 1
876 108 1
876 110 1
876 123 1
876 139 1
876 142 1
876 146 1
876 148 1
876 153 2
876 165 1
876 167 1
877 1 1
877 95 1
877 109 1
877 141 1
877 154 1
877 188 1
877 197 1
878 3 1
878 38 2
878 46 1
878 83 2
878 121 1
878 128 1
878 138 1
878 148 1
878 149 1
878 157 1
878 168 1
878 171 1
878 178 1
878 180 1
878 181 1
878 198 1
879 35 1
879 63 1
879 86 2
879 106 2
879 107 1
879 109 1
879 112 1
879 115 1
879 128 1
879 142 1
879 144 1
879 153 1
879 163 1
879 179 1
880 5 1
880 12 1
880 19 1
880 37 1
880 40 1
880 76 1
880 82 1
880 92 2
880 103 1
880 106 1
880 127 1
880 130 1
880 170 1
880 186 1
881 7 1
881 19 1
881 27 1
881 30 1
881 73 1
881 75 1
881 83 1
881 90 1
881 107 1
881 112 1
881 121 1
881 125 1
881 127 1
881 143 2
881 150 1
881 151 2
881 160 1
881 168 1
881 172 1
881 175 2
881 181 1
881 191 1
882 18 1
882 34 1
882 38 1
882 55 1
882 68 2
882 70 1
882 73 1
882 90 1
882 110 1
882 129 2
882 133 1
882 143 1
882 193 1
883 8 1
883 12 1
883 16 1
883 25 1
883 35 1
883 42 1
883 43 1
883 49 2
883 60 1
883 86 1
883 102 1
883 110 1
883 148 1
883 158 1
883 199 1
884 8 1
884 16 1
884 32 1
884 47 1
884 56 1
884 58 1
884 60 1
884 63 1
884 67 1
884 95 1
884 109 1
884 114 1
884 124 1
884 145 1
884 150 1
884 158 1
884 192 1
885 18 2
885 33 1
885 42 1
885 61 1
885 79 1
885 85 1
885 97 1
885 108 1
885 114 1
885 149 1
885 152 1
885 160 1
886 25 1
886 49 1
886 52 1
886 62 2
886 78 2
886 90 1
886 115 1
886 127 1
886 139 1
886 159 1
886 169 1
886 200 1
887 17 1
887 18 2
887 29 1
887 35 1
887 53 1
887 69 1
887 89 1
887 97 1
887 126 1
887 141 1
887 151 1
887 166 1
887 173 1
888 6 1
888 9 1
888 29 1
888 50 1
888 56 1
888 70 1
888 77 1
888 129 1
888 139 1
888 186 1
888 195 1
889 9 1
889 23 1
889 24 2
889 29 2
889 45 2
889 54 1
889 63 1
889 82 1
889 87 1
889 100 1
889 132 1
889 142 1
889 150 1
889 157 1
889 160 1
890 6 1
890 19 2
890 21 1
890 34 1
890 68 1
890 79 1
890 83 1
890 123 2
890 142 1
890 153 1
890 162 1
890 172 1
890 173 1
891 15 1
891 30 1
891 50 1
891 60 1
891 61 1
891 92 1
891 134 1
891 141 1
891 161 1
891 174 1
891 179 1
892 26 1
892 30 1
892 39 1
892 66 1
892 110 1
892 142 1
892 148 1
892 150 1
892 172 2
892 184 1
892 188 1
892 193 1
893 7 1
893 48 1
893 49 1
893 53 1
893 66 1
893 75 1
893 76 1
893 91 1
893 120 1
893 162 1
894 22 1
894 33 1
894 49 1
894 51 1
894 62 2
894 68 1
894 90 1
894 100 1
894 114 1
894 115 1
894 117 1
894 143 1
894 155 1
894 161 1
894 167 1
894 174 1
894 179 1
894 187 1
894 191 1
895 8 1
895 11 1
895 17 1
895 33 1
895 41 1
895 47 1
895 110 1
895 123 1
895 151 1
895 178 1
895 181 1
895 184 1
895 185 1
896 15 1
896 17 1
896 21 1
896 31 1
896 33 1
896 34 1
896 72 1
896 73 1
896 95 1
896 153 2
896 155 2
896 185 1
896 193 1
897 1 1
897 8 1
897 17 1
897 25 1
897 37 1
897 48 1
897 60 1
897 78 1
897 94 1
897 109 1
897 110 1
897 123 1
897 151 1
897 155 1
897 156 1
897 175 1
898 5 1
898 34 2
898 38 1
898 94 1
898 113 1
898 133 1
898 142 2
898 143 1
898 156 1
898 181 1
899 13 2
899 51 2
899 76 1
899 82 1
899 85 1
899 98 4
899 160 1
899 167 1
899 169 1
899 200 1
900 85 1
900 101 1
900 116 2
900 132 1
900 141 1
900 153 1
901 5 1
901 15 1
901 73 1
901 79 1
901 87 1
901 128 1
901 139 1
901 142 1
901 148 1
901 150 1
901 156 1
901 165 1
901 179 1
901 181 2
901 192 2
902 26 1
902 30 1
902 37 1
902 48 1
902 60 1
902 69 1
902 77 1
902 78 1
902 81 1
902 99 1
902 107 1
902 123 1
902 162 1
902 166 1
902 177 2
902 179 1
902 180 1
902 183 1
903 15 1
903 40 1
903 48 1
903 66 1
903 67 1
903 79 1
903 89 1
903 96 1
903 108 1
903 124 1
903 130 1
903 163 1
903 166 1
903 187 1
904 23 1
904 41 1
904 49 2
904 73 1
904 88 1
904 96 2
904 122 1
904 125 1
904 128 1
904 130 1
904 185 1
904 188 2
905 10 1
905 12 1
905 28 1
905 32 1
905 65 1
905 95 1
905 100 1
905 102 1
905 123 1
905 125 1
905 137 1
905 148 1
905 164 1
905 178 1
905 188 1
905 194 2
906 7 1
906 13 1
906 14 2
906 27 1
906 42 1
906 45 1
906 46 1
906 69 1
906 75 1
906 84 1
906 100 1
906 102 1
906 200 1
907 14 1
907 23 1
907 42 1
907 63 1
907 65 1
907 83 1
907 111 1
907 121 1
907 193 1
908 7 1
908 15 1
908 18 1
908 29 2
908 30 1
908 51 1
908 56 1
908 75 1
908 94 1
908 103 1
908 113 1
908 119 1
908 121 1
908 134 1
908 139 1
908 200 1
909 38 1
909 54 1
909 72 1
909 73 1
909 76 1
909 79 1
909 82 1
909 84 1
909 90 1
909 96 1
909 106 1
909 124 1
909 125 1
909 146 1
909 167 1
909 175 1
909 190 1
909 191 1
909 193 1
910 3 1
910 8 1
910 12 1
910 26 1
910 51 1
910 78 1
910 87 1
910 97 2
910 114 1
910 120 1
910 131 1
910 157 1
910 177 1
911 47 1
911 66 2
911 79 1
911 88 1
911 111 1
911 117 1
911 133 1
911 139 1
911 151 1
911 170 1
912 7 1
912 17 1
912 30 1
912 35 1
912 42 2
912 44 1
912 45 1
912 67 1
912 69 1
912 85 1
912 92 1
912 107 1
912 114 1
912 127 1
912 149 1
912 194 1
913 14 1
913 20 1
913 52 1
913 84 1
913 89 1
913 101 1
913 112 1
913 117 1
913 120 1
913 124 1
913 131 1
913 132 1
913 138 1
913 156 2
913 163 1
913 176 1
913 182 1
913 193 1
913 195 1
914 18 1
914 19 1
914 75 1
914 100 1
914 132 1
914 138 1
914 171 1
914 195 1
915 7 1
915 53 1
915 57 1
915 69 1
915 78 1
915 80 1
915 86 1
915 105 1
915 109 1
915 114 1
915 117 1
915 133 1
915 147 1
915 151 1
915 162 1
915 171 1
915 190 1
915 191 1
915 200 1
916 10 2
916 21 1
916 56 1
916 63 1
916 68 1
916 72 1
916 77 1
916 91 1
916 111 1
916 116 1
916 118 1
916 127 1
916 141 1
916 142 2
916 145 1
916 151 1
916 155 1
916 193 1
917 15 1
917 42 1
917 67 1
917 74 1
917 117 1
917 121 1
917 122 1
917 189 1
918 2 2
918 18 1
918 44 1
918 106 1
918 116 1
918 128 1
918 133 1
918 140 1
918 183 1
918 185 1
918 188 1
919 39 1
919 62 1
919 63 1
919 122 2
919 124 1
919 141 1
919 153 1
919 163 1
919 194 1
920 5 1
920 8 1
920 10 1
920 14 1
920 28 1
920 36 1
920 51 1
920 65 1
920 101 1
920 116 1
920 120 1
920 132 1
920 157 1
920 165 1
920 188 1
921 14 1
921 23 1
921 24 1
921 43 1
921 52 1
921 68 1
921 69 1
921 163 1
921 164 2
921 194 1
921 196 1
921 197 1
922 48 1
922 63 1
922 83 2
922 84 1
922 86 1
922 114 1
922 125 1
922 129 1
922 137 2
922 141 1
922 196 1
923 17 1
923 25 1
923 33 1
923 71 1
923 77 1
923 81 1
923 83 1
923 90 1
923 117 2
923 132 1
923 133 1
923 164 2
923 175 1
924 25 2
924 28 1
924 39 1
924 59 1
924 65 1
924 80 1
924 85 1
924 87 1
924 100 1
924 106 1
924 118 1
924 129 1
924 146 1
924 149 1
924 160 1
924 181 1
924 195 1
925 19 1
925 20 1
925 26 1
925 35 1
925 61 1
925 81 1
925 94 1
925 110 1
925 133 1
925 137 2
925 148 1
925 171 1
925 172 1
925 190 1
926 4 1
926 56 1
926 64 1
926 119 1
926 138 1
926 139 3
926 160 1
926 164 1
926 181 1
926 191 1
927 18 1
927 23 1
927 26 1
927 53 1
927 60 1
927 73 1
927 83 1
927 109 1
927 114 1
927 133 1
927 151 2
927 173 1
927 180 1
928 49 1
928 86 1
928 93 1
928 135 1
928 157 1
928 159 1
928 175 1
928 188 1
929 18 2
929 44 1
929 58 1
929 63 1
929 68 1
929 76 1
929 81 1
929 93 1
929 97 1
929 106 1
929 113 1
929 119 1
929 136 1
929 147 1
929 163 1
929 164 1
929 169 1
929 172 1
929 179 1
929 189 1
929 191 1
930 13 1
930 20 1
930 22 1
930 23 1
930 41 1
930 44 1
930 46 1
930 61 1
930 78 1
930 93 1
930 113 1
930 116 1
930 125 1
930 144 1
930 155 1
930 183 1
930 185 1
930 186 1
931 14 1
931 17 1
931 21 1
931 90 1
931 101 2
931 107 2
931 112 1
931 126 1
931 129 1
931 147 1
931 159 1
931 172 1
931 174 1
931 176 1
932 14 1
932 18 2
932 30 1
932 37 1
932 59 1
932 85 1
932 94 1
932 123 1
932 128 1
932 129 1
932 149 1
932 165 2
932 167 1
932 168 2
932 191 1
932 195 1
932 196 2
933 13 1
933 31 1
933 45 1
933 79 1
933 130 1
933 136 1
933 141 1
933 160 1
933 167 1
933 173 1
933 174 1
933 197 1
934 3 1
934 5 1
934 26 1
934 30 2
934 50 2
934 85 1
934 88 1
934 105 1
934 118 1
934 136 1
934 148 1
934 156 1
934 182 1
934 193 1
934 198 2
935 28 1
935 67 1
935 78 1
935 79 1
935 80 1
935 97 1
935 129 1
935 147 1
935 150 1
935 180 1
935 182 2
935 193 1
936 6 1
936 24 1
936 51 1
936 55 1
936 146 1
936 150 1
936 183 1
937 7 1
937 12 1
937 19 1
937 83 1
937 103 1
937 104 1
937 107 1
937 129 1
937 132 1
937 133 1
937 134 1
937 135 1
937 180 1
937 187 1
938 23 1
938 30 2
938 31 1
938 47 1
938 49 2
938 53 1
938 81 1
938 113 1
938 121 1
938 169 1
938 176 1
938 180 1
938 199 1
939 47 1
939 48 1
939 58 1
939 86 1
939 92 1
939 131 1
939 162 1
940 3 1
940 23 1
940 51 1
940 52 1
940 54 1
940 84 1
940 90 1
940 91 1
940 97 1
940 100 1
940 107 1
940 115 1
940 117 1
940 130 1
940 136 2
940 157 1
940 177 1
940 184 1
940 193 1
941 14 1
941 24 1
941 45 1
941 56 2
941 86 1
941 106 1
941 121 1
941 122 1
941 127 1
941 132 1
941 147 1
941 192 1
942 15 1
942 16 1
942 21 1
942 51 1
942 65 1
942 94 1
942 96 1
942 106 1
942 134 1
942 169 1
942 178 1
942 179 1
943 4 1
943 7 1
943 51 1
943 100 1
943 114 2
943 130 1
943 153 1
943 180 1
943 195 1
944 14 1
944 25 1
944 43 1
944 58 1
944 77 1
944 86 1
944 99 1
944 101 1
944 108 1
944 127 1
944 132 1
944 134 1
944 157 1
944 177 1
945 1 1
945 6 1
945 29 1
945 55 1
945 72 1
945 81 1
945 85 1
945 112 1
945 120 1
945 137 2
945 142 1
945 168 1
945 176 2
945 179 1
945 181 2
945 187 1
945 197 1
946 4 1
946 20 1
946 37 1
946 44 1
946 63 1
946 74 1
946 76 1
946 81 1
946 99 1
946 104 1
946 111 1
946 118 1
946 127 1
946 134 1
946 148 1
946 164 1
947 3 1
947 29 1
947 36 1
947 40 1
947 45 1
947 49 1
947 77 1
947 85 2
947 96 1
947 101 1
947 102 1
947 116 1
947 130 1
947 137 2
947 185 1
948 2 1
948 7 1
948 11 1
948 25 1
948 32 1
948 38 1
948 43 1
948 62 1
948 83 1
948 88 1
948 90 1
948 107 1
948 142 1
948 148 1
948 149 1
948 158 1
948 177 1
948 180 1
948 184 1
948 197 1
949 1 1
949 10 1
949 15 1
949 20 1
949 59 1
949 68 1
949 93 1
949 106 1
949 108 1
949 137 1
949 172 1
949 192 1
949 196 1
949 197 1
949 200 1
950 23 1
950 41 1
950 50 1
950 62 1
950 87 1
950 92 1
950 105 1
950 136 2
950 138 1
950 148 1
950 167 2
950 169 1
951 8 2
951 14 1
951 27 1
951 69 1
951 70 1
951 80 2
951 105 1
951 110 1
951 131 1
951 132 1
951 135 1
951 144 1
951 162 1
951 193 2
951 198 1
952 6 1
952 29 1
952 31 1
952 39 1
952 42 1
952 51 2
952 55 1
952 76 1
952 77 1
952 114 1
952 116 1
952 121 1
952 135 1
952 164 1
952 166 1
952 178 1
952 183 1
952 185 2
952 187 1
953 12 1
953 25 1
953 35 1
953 60 1
953 70 1
953 74 1
953 84 1
953 116 1
953 136 1
953 147 1
953 149 1
953 156 1
953 175 1
954 2 1
954 3 1
954 20 1
954 29 2
954 54 1
954 55 1
954 65 1
954 82 1
954 87 1
954 89 1
954 95 1
954 119 1
954 132 1
954 152 1
954 168 1
954 175 1
954 191 1
954 193 1
955 8 2
955 17 1
955 28 1
955 38 1
955 44 1
955 50 1
955 61 1
955 71 1
955 105 1
955 117 1
955 122 1
955 169 1
955 192 1
956 5 1
956 37 1
956 45 1
956 56 1
956 62 1
956 68 2
956 82 1
956 83 1
956 85 1
956 89 1
956 109 1
956 124 1
957 19 1
957 30 1
957 95 1
957 103 1
957 114 1
957 117 1
957 138 1
957 142 1
957 152 1
957 164 1
957 178 1
957 187 1
957 194 1
958 46 1
958 64 1
958 73 1
958 74 1
958 86 1
958 90 1
958 101 1
958 135 1
958 146 1
958 152 1
958 159 1
958 174 1
958 181 1
958 183 1
958 197 1
959 11 2
959 16 1
959 18 1
959 20 1
959 31 1
959 37 2
959 62 2
959 70 1
959 119 1
959 149 1
959 150 1
959 167 1
959 175 1
959 180 1
960 14 1
960 23 1
960 43 1
960 73 1
960 76 1
960 82 1
960 108 1
960 118 1
960 133 1
960 158 1
960 185 1
960 193 1
961 6 1
961 26 1
961 47 1
961 66 1
961 79 1
961 84 1
961 101 1
961 114 1
961 132 1
961 137 1
961 142 1
961 151 1
961 153 1
961 155 1
962 24 1
962 35 1
962 40 1
962 43 1
962 49 1
962 50 1
962 77 1
962 87 2
962 103 1
962 166 1
962 177 1
962 199 1
963 3 1
963 10 1
963 15 1
963 21 1
963 24 1
963 38 1
963 43 1
963 51 1
963 55 1
963 72 1
963 86 1
963 91 1
963 92 1
963 114 1
963 120 1
963 146 1
963 160 1
963 164 1
964 16 1
964 21 1
964 76 1
964 84 2
964 85 1
964 93 1
964 96 1
964 120 1
964 122 1
964 145 1
964 150 1
964 154 1
964 159 1
964 162 1
964 165 1
964 170 1
964 193 1
965 3 1
965 14 1
965 26 1
965 28 1
965 29 1
965 40 1
965 56 1
965 63 1
965 83 1
965 89 1
965 92 1
965 95 1
965 112 1
965 116 1
965 130 1
965 148 1
965 153 1
965 173 2
965 177 1
965 185 1
966 17 1
966 36 1
966 43 1
966 45 1
966 71 1
966 77 1
966 108 1
966 112 1
966 136 1
966 172 1
966 183 1
966 187 1
966 194 1
966 195 1
966 200 1
967 21 1
967 34 1
967 38 1
967 74 1
967 79 1
967 83 1
967 94 1
967 109 1
967 124 1
967 143 2
967 169 1
967 172 1
967 185 1
967 186 1
967 192 1
967 195 1
968 3 2
968 19 1
968 51 1
968 60 1
968 94 1
968 165 1
968 190 1
969 13 1
969 27 1
969 60 1
969 64 1
969 66 1
969 72 1
969 88 2
969 94 1
969 113 1
969 123 1
969 126 1
969 127 1
969 162 1
969 170 2
969 173 1
969 175 1
969 192 1
969 195 1
970 4 1
970 13 1
970 18 1
970 29 2
970 35 1
970 76 1
970 86 1
970 101 1
970 103 1
970 125 1
970 138 1
970 170 1
970 172 1
970 175 1
970 193 1
970 196 1
971 8 1
971 11 1
971 31 1
971 33 1
971 41 1
971 66 1
971 77 1
971 136 1
971 155 1
971 156 1
971 171 1
971 175 1
972 14 1
972 31 1
972 49 1
972 55 1
972 127 1
972 135 1
972 165 1
972 167 1
972 182 1
972 190 1
972 192 1
973 44 1
973 54 1
973 69 2
973 93 1
973 132 1
973 141 2
973 143 1
973 159 1
973 180 1
974 55 1
974 56 2
974 77 1
974 92 1
974 98 1
974 114 1
974 116 1
974 136 2
974 163 1
974 169 1
974 200 1
975 14 1
975 15 1
975 26 1
975 29 2
975 32 1
975 39 1
975 52 1
975 89 1
975 126 1
975 146 1
975 155 3
975 174 1
975 185 2
976 1 1
976 61 2
976 66 1
976 72 1
976 75 1
976 86 1
976 94 1
976 110 2
976 120 1
976 165 1
976 195 1
977 7 1
977 53 1
977 54 1
977 65 1
977 69 1
977 90 2
977 97 1
977 105 1
977 109 1
977 120 1
977 129 1
977 130 1
977 134 2
977 144 1
977 149 1
977 154 1
977 157 1
977 167 1
977 179 1
977 191 1
977 193 1
978 6 1
978 51 1
978 52 1
978 90 1
978 93 1
978 111 1
978 124 1
978 135 1
978 142 1
978 143 1
978 152 1
978 159 1
978 170 1
978 178 1
978 179 1
978 180 1
978 187 1
979 16 1
979 29 1
979 41 1
979 54 1
979 57 1
979 87 1
979 96 1
979 124 1
979 130 1
979 134 1
979 137 1
979 148 1
979 173 1
979 174 2
979 178 1
979 181 1
979 183 1
979 191 1
979 193 1
979 194 1
980 10 1
980 16 1
980 37 1
980 39 1
980 48 1
980 55 1
980 82 1
980 106 1
980 113 1
980 114 1
980 154 1
980 156 1
980 158 1
980 174 1
980 187 1
980 197 1
981 2 1
981 6 1
981 15 1
981 33 1
981 68 1
981 69 1
981 81 1
981 97 1
981 98 1
981 99 1
981 100 1
981 103 1
981 106 1
981 111 1
981 113 1
981 124 1
981 131 1
981 137 1
981 151 2
981 153 1
981 174 1
981 180 1
981 193 1
982 2 1
982 33 1
982 40 1
982 42 1
982 47 1
982 56 1
982 61 1
982 84 2
982 138 1
982 147 1
982 149 1
982 166 1
982 195 1
983 16 1
983 41 1
983 52 1
983 89 1
983 109 1
983 119 1
983 126 1
983 159 1
984 5 1
984 39 1
984 84 1
984 117 1
984 136 1
984 152 1
984 160 1
984 176 1
984 181 1
984 192 1
985 22 1
985 25 2
985 43 1
985 50 1
985 76 1
985 86 1
985 87 1
985 110 1
985 119 1
985 124 1
985 127 1
985 146 1
985 164 1
985 170 2
985 175 1
986 5 1
986 61 1
986 63 1
986 85 1
986 86 1
986 92 1
986 93 2
986 104 1
986 129 1
986 138 2
986 143 1
986 166 2
986 169 1
986 188 1
987 34 1
987 76 1
987 89 1
987 112 1
987 135 1
987 147 1
987 161 1
987 164 1
987 168 1
987 173 1
987 174 1
987 192 1
988 3 1
988 8 1
988 9 1
988 33 1
988 45 1
988 73 2
988 109 1
988 125 1
988 127 2
988 136 1
988 154 1
988 155 1
988 158 1
988 176 1
988 185 1
989 74 1
989 82 1
989 99 1
989 108 1
989 138 1
989 139 1
989 156 1
990 11 1
990 25 1
990 31 1
990 65 1
990 67 1
990 83 1
990 85 1
990 90 1
990 117 1
990 118 1
990 119 1
990 122 1
990 135 1
990 142 1
990 157 1
990 180 2
990 191 1
991 3 1
991 14 1
991 53 1
991 54 1
991 63 1
991 71 1
991 75 1
991 85 1
991 114 1
991 123 1
991 131 1
991 143 1
991 148 1
991 149 1
991 159 1
991 164 1
991 172 1
991 174 1
991 177 1
991 199 1
992 18 1
992 33 1
992 60 1
992 85 1
992 106 1
992 122 2
992 124 1
992 165 3
992 177 1
992 200 2
993 1 1
993 11 1
993 13 1
993 35 1
993 55 1
993 87 1
993 95 1
993 100 1
993 105 1
993 121 2
993 169 1
993 179 1
993 189 1
993 199 1
994 19 1
994 21 1
994 28 1
994 36 1
994 41 1
994 69 1
994 73 1
994 81 1
994 86 2
994 127 2
994 141 2
994 166 1
994 180 1
994 181 1
995 13 1
995 18 1
995 38 1
995 45 1
995 72 1
995 74 1
995 81 1
995 94 2
995 114 1
995 142 1
995 160 1
995 168 1
995 189 1
995 194 1
996 1 1
996 8 1
996 10 1
996 17 1
996 55 1
996 72 2
996 75 1
996 86 1
996 93 1
996 117 1
996 122 1
996 147 1
996 148 1
996 149 1
996 167 1
996 198 1
997 19 1
997 38 1
997 50 1
997 75 1
997 89 1
997 157 1
997 166 1
998 11 2
998 13 1
998 24 1
998 30 1
998 51 1
998 112 1
998 119 1
998 128 1
998 131 1
998 139 1
998 144 1
998 150 1
998 154 1
998 162 1
998 166 1
999 5 1
999 17 1
999 28 1
999 54 1
999 59 1
999 76 1
999 77 2
999 102 1
999 107 2
999 113 1
999 114 1
999 118 1
999 132 2
999 154 1
999 187 1
1000 41 1
1000 46 1
1000 77 1
1000 124 1
1000 145 1
1000 151 1
1000 170 1
1000 180 1
1000 184 1
1000 196 1
