%%MatrixMarket matrix coordinate integer general
%
1000	100	14170
1 1 7
1 2 1
1 4 1
1 7 8
1 8 1
1 11 13
1 13 9
1 14 15
1 20 4
1 25 4
1 26 2
1 27 1
1 29 3
1 30 5
1 31 2
1 34 7
1 35 1
1 40 12
1 41 11
1 43 18
1 46 7
1 47 4
1 48 10
1 49 6
1 51 11
1 53 13
1 54 4
1 55 6
1 56 5
1 58 1
1 59 1
1 60 1
1 61 7
1 62 2
1 64 10
1 66 1
1 68 1
1 69 1
1 70 13
1 73 1
1 75 8
1 77 12
1 79 2
1 80 5
1 83 12
1 86 5
1 88 6
1 89 8
1 91 16
1 97 7
1 98 7
1 99 7
1 100 7
2 1 6
2 3 1
2 7 8
2 11 4
2 13 11
2 14 7
2 20 12
2 25 4
2 26 8
2 29 5
2 30 9
2 31 11
2 34 8
2 40 7
2 41 13
2 43 4
2 45 1
2 46 5
2 47 9
2 48 5
2 49 8
2 51 15
2 53 17
2 54 10
2 55 6
2 56 5
2 58 1
2 59 2
2 61 12
2 64 9
2 65 1
2 70 7
2 71 1
2 73 1
2 75 8
2 77 5
2 78 1
2 79 1
2 80 17
2 83 6
2 84 1
2 86 6
2 88 6
2 89 6
2 91 5
2 97 12
2 98 6
2 99 7
2 100 11
3 1 10
3 2 1
3 7 4
3 11 7
3 13 12
3 14 11
3 15 1
3 20 11
3 24 1
3 25 9
3 26 10
3 29 2
3 30 7
3 31 8
3 32 1
3 34 5
3 37 1
3 38 1
3 40 4
3 41 15
3 43 8
3 46 5
3 47 8
3 48 10
3 49 10
3 51 4
3 53 7
3 54 18
3 55 14
3 56 10
3 58 1
3 60 1
3 61 6
3 64 11
3 69 2
3 70 7
3 72 1
3 75 5
3 76 2
3 77 4
3 80 3
3 83 11
3 85 2
3 86 14
3 88 8
3 89 12
3 91 5
3 97 9
3 98 8
3 99 6
3 100 10
4 1 7
4 3 1
4 7 14
4 10 1
4 11 8
4 13 10
4 14 5
4 20 12
4 25 11
4 26 12
4 29 6
4 30 5
4 31 11
4 34 11
4 37 1
4 40 11
4 41 16
4 43 6
4 46 9
4 47 8
4 48 10
4 49 11
4 51 5
4 53 5
4 54 6
4 55 3
4 56 9
4 60 2
4 61 4
4 63 1
4 64 8
4 67 1
4 69 1
4 70 9
4 75 12
4 76 1
4 77 9
4 78 1
4 79 1
4 80 4
4 82 1
4 83 4
4 84 1
4 85 1
4 86 10
4 88 8
4 89 4
4 90 1
4 91 8
4 94 1
4 95 1
4 97 11
4 98 3
4 99 12
4 100 7
5 1 7
5 4 1
5 7 8
5 11 8
5 13 6
5 14 4
5 19 1
5 20 10
5 23 1
5 25 6
5 26 5
5 27 2
5 29 5
5 30 3
5 31 10
5 34 4
5 37 1
5 40 10
5 41 12
5 43 6
5 45 1
5 46 12
5 47 7
5 48 5
5 49 10
5 50 1
5 51 12
5 52 1
5 53 9
5 54 8
5 55 5
5 56 5
5 61 10
5 63 1
5 64 3
5 66 2
5 70 7
5 71 2
5 73 1
5 75 10
5 77 4
5 80 5
5 83 6
5 86 9
5 88 19
5 89 7
5 91 3
5 92 1
5 93 1
5 97 8
5 98 15
5 99 7
5 100 10
6 1 12
6 2 1
6 3 1
6 4 1
6 7 11
6 9 1
6 10 1
6 11 12
6 13 17
6 14 8
6 15 1
6 19 1
6 20 7
6 24 1
6 25 3
6 26 8
6 27 1
6 29 10
6 30 15
6 31 8
6 34 5
6 39 1
6 40 10
6 41 5
6 42 1
6 43 9
6 46 12
6 47 4
6 48 13
6 49 7
6 50 1
6 51 2
6 53 9
6 54 11
6 55 7
6 56 4
6 61 7
6 64 11
6 70 9
6 74 1
6 75 9
6 77 5
6 80 9
6 83 11
6 86 9
6 88 10
6 89 12
6 91 10
6 92 1
6 97 8
6 98 5
6 99 6
6 100 6
7 1 1
7 2 9
7 4 10
7 5 15
7 6 2
7 9 1
7 10 8
7 11 1
7 12 7
7 16 8
7 17 9
7 18 1
7 19 16
7 21 8
7 24 1
7 25 1
7 26 1
7 28 5
7 31 2
7 35 1
7 36 9
7 37 4
7 39 7
7 40 1
7 42 9
7 43 1
7 44 10
7 48 1
7 50 12
7 52 1
7 55 2
7 57 3
7 59 3
7 60 5
7 63 5
7 65 4
7 67 8
7 69 13
7 71 3
7 72 6
7 73 9
7 76 2
7 79 7
7 84 8
7 85 5
7 87 13
7 88 1
7 89 1
7 90 5
7 92 9
7 93 4
7 94 3
7 95 8
7 96 9
7 98 1
7 100 1
8 2 12
8 4 10
8 5 10
8 6 11
8 10 12
8 11 1
8 12 7
8 13 1
8 15 1
8 16 3
8 17 7
8 18 1
8 19 9
8 21 12
8 23 1
8 25 1
8 26 1
8 28 3
8 30 1
8 36 8
8 37 10
8 38 1
8 39 11
8 40 2
8 42 8
8 43 2
8 44 7
8 46 1
8 49 1
8 50 10
8 53 1
8 54 1
8 57 9
8 59 9
8 60 9
8 63 16
8 65 9
8 66 1
8 67 10
8 69 3
8 71 11
8 72 14
8 73 7
8 74 1
8 79 4
8 84 7
8 85 8
8 87 8
8 90 8
8 91 1
8 92 11
8 93 6
8 94 5
8 95 8
8 96 3
9 2 9
9 3 1
9 4 9
9 5 8
9 6 12
9 10 10
9 11 1
9 12 11
9 16 3
9 17 3
9 18 2
9 19 5
9 21 6
9 28 7
9 33 1
9 36 7
9 37 8
9 39 8
9 42 11
9 43 1
9 44 7
9 47 1
9 50 10
9 51 1
9 57 12
9 58 1
9 59 6
9 60 11
9 63 9
9 64 1
9 65 5
9 67 10
9 68 1
9 69 10
9 70 2
9 71 8
9 72 9
9 73 6
9 76 1
9 79 7
9 83 1
9 84 4
9 85 9
9 87 13
9 90 6
9 91 2
9 92 3
9 93 6
9 94 8
9 95 5
9 96 7
9 97 1
9 98 1
9 99 2
9 100 1
10 2 12
10 4 5
10 5 12
10 6 10
10 10 6
10 11 1
10 12 4
10 13 1
10 16 6
10 17 6
10 19 5
10 21 9
10 22 1
10 28 8
10 36 13
10 37 3
10 38 1
10 39 6
10 42 5
10 43 1
10 44 10
10 47 1
10 49 1
10 50 9
10 51 1
10 54 1
10 57 7
10 59 9
10 60 8
10 63 5
10 65 14
10 67 8
10 69 4
10 70 1
10 71 14
10 72 12
10 73 7
10 79 6
10 80 1
10 84 4
10 85 5
10 87 9
10 90 4
10 92 14
10 93 8
10 94 8
10 95 12
10 96 9
11 2 5
11 4 5
11 5 9
11 6 7
11 10 2
11 11 1
11 12 7
11 14 1
11 16 7
11 17 10
11 19 9
11 21 4
11 22 1
11 28 7
11 32 1
11 35 1
11 36 6
11 37 6
11 38 1
11 39 11
11 42 6
11 44 8
11 50 17
11 51 1
11 53 1
11 54 1
11 57 9
11 59 9
11 60 13
11 63 4
11 65 7
11 67 13
11 68 1
11 69 9
11 71 3
11 72 4
11 73 6
11 79 4
11 84 9
11 85 6
11 87 10
11 88 1
11 90 9
11 92 4
11 93 14
11 94 2
11 95 5
11 96 8
12 2 5
12 4 8
12 5 9
12 6 3
12 10 9
12 12 15
12 16 6
12 17 11
12 19 16
12 21 6
12 23 1
12 28 4
12 32 1
12 36 10
12 37 5
12 38 1
12 39 9
12 42 7
12 44 5
12 45 1
12 47 1
12 49 1
12 50 6
12 52 1
12 57 4
12 58 2
12 59 8
12 60 9
12 63 15
12 65 10
12 66 1
12 67 10
12 69 6
12 71 8
12 72 3
12 73 11
12 79 4
12 84 14
12 85 8
12 87 14
12 90 8
12 92 11
12 93 12
12 94 4
12 95 8
12 96 8
12 100 1
13 8 7
13 9 5
13 15 8
13 18 12
13 22 8
13 23 6
13 27 6
13 28 1
13 29 2
13 30 1
13 31 1
13 32 8
13 35 6
13 37 1
13 42 1
13 43 1
13 45 7
13 46 2
13 47 1
13 51 1
13 57 1
13 58 8
13 59 1
13 69 1
13 75 1
13 78 12
13 80 1
13 91 1
13 92 1
13 96 1
13 99 1
13 100 1
14 6 1
14 8 9
14 9 9
14 15 12
14 18 10
14 22 5
14 23 7
14 26 1
14 27 8
14 32 8
14 35 12
14 37 1
14 40 2
14 42 1
14 45 7
14 46 1
14 52 1
14 58 5
14 62 1
14 65 1
14 66 1
14 67 1
14 75 1
14 78 5
14 84 1
14 88 2
14 91 1
14 93 1
14 95 2
14 97 1
14 98 1
15 8 9
15 9 6
15 15 6
15 18 9
15 22 2
15 23 11
15 26 1
15 27 7
15 32 7
15 34 1
15 35 8
15 42 1
15 45 1
15 49 1
15 53 1
15 56 1
15 58 4
15 60 2
15 62 1
15 67 1
15 70 1
15 78 5
15 80 2
15 85 1
15 88 1
15 95 2
16 2 1
16 5 1
16 8 7
16 9 7
16 12 1
16 15 7
16 16 1
16 18 14
16 22 12
16 23 8
16 27 14
16 28 1
16 32 7
16 33 1
16 35 8
16 40 1
16 41 1
16 42 1
16 44 1
16 45 7
16 46 1
16 49 1
16 55 1
16 58 11
16 59 1
16 66 1
16 67 1
16 71 1
16 72 1
16 78 12
16 79 1
16 80 1
16 85 1
16 89 3
16 91 1
16 92 2
16 97 1
17 3 1
17 4 1
17 5 2
17 6 2
17 8 11
17 9 7
17 15 6
17 18 8
17 21 3
17 22 8
17 23 13
17 26 2
17 27 8
17 32 11
17 35 11
17 38 1
17 45 7
17 46 1
17 49 1
17 50 1
17 54 1
17 55 1
17 56 2
17 58 1
17 59 1
17 66 1
17 73 1
17 78 12
17 79 1
17 85 1
17 86 1
17 87 1
17 90 1
18 1 1
18 8 7
18 9 9
18 15 10
18 16 1
18 18 8
18 22 12
18 23 8
18 25 2
18 27 5
18 32 6
18 34 1
18 35 7
18 44 2
18 45 3
18 51 1
18 53 1
18 58 6
18 62 2
18 68 1
18 73 1
18 78 11
18 86 1
18 87 1
18 88 1
18 89 1
18 96 1
19 3 13
19 5 1
19 7 1
19 8 1
19 9 1
19 11 1
19 14 1
19 15 1
19 21 1
19 23 1
19 24 2
19 28 1
19 29 2
19 33 5
19 36 1
19 38 6
19 45 1
19 47 1
19 49 1
19 52 7
19 53 2
19 61 1
19 62 7
19 66 7
19 68 5
19 70 2
19 74 3
19 76 5
19 81 9
19 82 8
19 88 1
19 92 1
19 93 1
19 96 1
20 3 12
20 6 1
20 12 1
20 13 1
20 18 1
20 19 1
20 24 11
20 29 1
20 32 1
20 33 4
20 37 2
20 38 6
20 39 1
20 46 1
20 48 1
20 49 1
20 50 1
20 51 2
20 52 3
20 62 8
20 63 1
20 66 8
20 68 3
20 72 1
20 74 8
20 76 9
20 79 2
20 81 8
20 82 10
20 83 1
20 84 1
20 87 1
21 3 6
21 7 2
21 8 1
21 11 1
21 12 1
21 13 2
21 19 2
21 20 1
21 24 6
21 25 1
21 33 6
21 38 6
21 42 1
21 44 1
21 45 1
21 49 1
21 52 6
21 62 7
21 63 1
21 64 1
21 66 8
21 68 9
21 74 8
21 76 9
21 79 1
21 81 11
21 82 11
21 85 1
21 86 1
21 90 2
21 93 1
21 98 1
21 100 1
22 3 6
22 4 1
22 6 1
22 9 1
22 13 1
22 19 2
22 20 1
22 22 1
22 23 1
22 24 8
22 29 1
22 30 2
22 33 10
22 37 1
22 38 10
22 39 1
22 41 1
22 44 1
22 45 1
22 48 1
22 49 2
22 52 13
22 54 1
22 56 1
22 62 8
22 66 6
22 68 6
22 69 1
22 74 2
22 75 1
22 76 7
22 81 11
22 82 4
22 85 1
22 87 1
22 88 1
22 89 1
23 1 1
23 3 8
23 24 11
23 30 1
23 33 7
23 36 1
23 37 1
23 38 9
23 43 1
23 44 1
23 49 1
23 50 1
23 51 1
23 52 6
23 56 1
23 59 1
23 62 10
23 65 1
23 66 9
23 68 9
23 72 1
23 74 7
23 76 8
23 77 1
23 78 2
23 81 13
23 82 10
24 3 8
24 5 2
24 16 1
24 17 1
24 19 1
24 24 18
24 28 1
24 29 2
24 33 11
24 38 4
24 39 2
24 48 1
24 52 13
24 58 1
24 59 1
24 62 7
24 66 12
24 67 1
24 68 2
24 69 1
24 74 12
24 76 8
24 80 2
24 81 4
24 82 9
24 91 1
24 92 1
24 93 1
24 98 1
24 99 1
25 1 5
25 2 6
25 3 8
25 4 9
25 5 7
25 6 3
25 7 5
25 8 5
25 9 7
25 10 4
25 11 5
25 12 3
25 13 8
25 14 9
25 15 9
25 16 4
25 17 5
25 18 7
25 19 1
25 20 9
25 21 5
25 22 11
25 23 7
25 24 5
25 25 6
25 26 7
25 27 8
25 28 6
25 29 7
25 30 8
25 31 5
25 32 7
25 33 9
25 34 6
25 35 5
25 36 6
25 37 6
25 38 3
25 39 6
25 40 9
25 41 4
25 42 8
25 43 5
25 44 11
25 45 7
25 46 4
25 47 6
25 48 8
25 49 5
25 50 6
25 51 7
25 52 8
25 54 12
25 55 9
25 56 8
25 57 11
25 58 6
25 59 3
25 60 8
25 61 3
25 62 5
25 63 12
25 64 5
25 65 4
25 66 10
25 67 5
25 68 4
25 69 6
25 70 10
25 71 6
25 72 6
25 73 3
25 74 6
25 75 8
25 76 8
25 77 5
25 78 6
25 79 3
25 80 8
25 81 5
25 82 8
25 83 6
25 84 6
25 85 7
25 86 4
25 87 4
25 88 4
25 89 7
25 90 10
25 91 3
25 92 9
25 93 5
25 94 6
25 95 4
25 96 1
25 97 6
25 98 5
25 99 5
25 100 6
26 1 8
26 2 11
26 3 8
26 4 6
26 5 4
26 6 9
26 7 7
26 8 11
26 9 5
26 10 8
26 11 8
26 12 6
26 13 4
26 14 10
26 15 2
26 16 2
26 17 5
26 18 4
26 19 4
26 20 2
26 21 5
26 22 9
26 23 5
26 24 10
26 25 5
26 26 3
26 27 4
26 28 13
26 29 2
26 30 12
26 31 6
26 32 3
26 33 3
26 34 7
26 35 11
26 36 7
26 37 2
26 38 3
26 39 11
26 40 5
26 41 7
26 42 12
26 43 4
26 44 2
26 45 12
26 46 3
26 47 5
26 48 4
26 49 6
26 50 6
26 51 6
26 52 1
26 53 4
26 54 6
26 55 3
26 56 9
26 57 6
26 58 4
26 59 13
26 60 5
26 61 1
26 62 5
26 63 8
26 64 6
26 65 8
26 66 7
26 67 9
26 68 7
26 69 11
26 70 6
26 71 11
26 72 2
26 73 8
26 74 7
26 75 10
26 76 3
26 77 3
26 78 2
26 79 6
26 80 6
26 81 5
26 82 4
26 83 7
26 84 5
26 85 6
26 86 5
26 87 8
26 88 3
26 89 11
26 90 7
26 91 5
26 92 2
26 93 4
26 94 8
26 95 12
26 96 8
26 97 3
26 98 5
26 99 8
26 100 7
27 1 9
27 2 6
27 3 3
27 4 7
27 5 1
27 6 5
27 7 6
27 8 7
27 9 6
27 10 5
27 11 10
27 12 6
27 13 6
27 14 1
27 15 5
27 16 9
27 17 8
27 18 2
27 19 5
27 20 3
27 21 6
27 22 7
27 23 13
27 24 6
27 25 1
27 26 3
27 27 2
27 28 4
27 29 6
27 30 7
27 31 3
27 32 12
27 33 6
27 34 8
27 35 6
27 36 4
27 37 10
27 38 10
27 39 10
27 40 7
27 41 5
27 42 4
27 43 5
27 44 2
27 45 4
27 46 4
27 47 8
27 48 4
27 49 3
27 50 6
27 51 8
27 52 1
27 53 3
27 54 8
27 55 3
27 56 12
27 57 10
27 58 7
27 59 5
27 60 5
27 61 4
27 62 4
27 63 5
27 64 2
27 65 7
27 66 4
27 67 6
27 68 7
27 69 3
27 70 4
27 71 7
27 72 4
27 73 4
27 74 5
27 75 4
27 76 7
27 77 5
27 78 8
27 79 6
27 80 8
27 81 5
27 82 3
27 83 4
27 84 9
27 85 5
27 86 9
27 87 1
27 88 1
27 89 10
27 90 4
27 91 5
27 92 6
27 93 4
27 94 2
27 95 6
27 96 12
27 97 8
27 98 5
27 99 1
27 100 6
28 1 5
28 2 5
28 3 7
28 4 5
28 5 5
28 6 3
28 7 10
28 8 6
28 9 6
28 10 8
28 11 4
28 12 3
28 13 11
28 14 5
28 15 12
28 16 3
28 17 6
28 18 4
28 19 4
28 20 11
28 21 4
28 22 10
28 23 9
28 24 4
28 25 6
28 26 2
28 27 7
28 28 3
28 29 5
28 30 4
28 31 5
28 32 8
28 33 5
28 34 5
28 35 3
28 36 4
28 37 7
28 38 8
28 39 8
28 40 4
28 41 7
28 42 6
28 43 4
28 44 3
28 45 5
28 46 4
28 47 3
28 48 7
28 49 12
28 50 4
28 51 9
28 52 10
28 53 4
28 54 2
28 55 7
28 56 2
28 57 4
28 58 2
28 59 10
28 60 4
28 61 7
28 62 12
28 63 6
28 64 10
28 65 3
28 66 5
28 67 8
28 68 4
28 69 6
28 70 2
28 71 4
28 72 11
28 73 12
28 74 9
28 75 5
28 76 3
28 77 6
28 78 7
28 79 3
28 80 5
28 81 5
28 82 9
28 83 4
28 84 6
28 85 6
28 86 4
28 87 10
28 88 8
28 89 8
28 90 5
28 91 5
28 92 9
28 93 5
28 94 2
28 95 6
28 96 7
28 97 8
28 98 5
28 99 9
28 100 4
29 1 8
29 2 5
29 3 8
29 4 15
29 5 5
29 6 4
29 7 6
29 8 5
29 9 2
29 10 8
29 11 5
29 12 7
29 13 8
29 14 6
29 15 11
29 16 2
29 17 7
29 18 5
29 19 7
29 20 6
29 21 11
29 22 5
29 23 7
29 24 1
29 25 3
29 26 4
29 27 12
29 28 12
29 29 6
29 30 8
29 31 3
29 32 5
29 33 9
29 34 7
29 35 9
29 36 4
29 37 6
29 38 5
29 39 7
29 40 3
29 41 10
29 42 6
29 43 3
29 44 12
29 45 4
29 46 2
29 47 5
29 48 1
29 49 7
29 50 5
29 51 6
29 52 8
29 53 7
29 54 5
29 55 6
29 56 3
29 57 4
29 58 10
29 59 5
29 60 4
29 61 7
29 62 5
29 63 11
29 64 2
29 65 6
29 66 1
29 67 9
29 68 8
29 69 4
29 70 3
29 71 12
29 72 8
29 73 5
29 74 4
29 76 4
29 77 6
29 78 6
29 79 9
29 80 9
29 81 5
29 82 3
29 83 4
29 84 5
29 85 8
29 86 9
29 87 6
29 88 5
29 89 5
29 90 4
29 91 7
29 92 5
29 93 5
29 94 9
29 95 11
29 96 8
29 97 7
29 98 1
29 99 7
29 100 5
30 1 5
30 2 3
30 3 4
30 4 9
30 5 4
30 6 10
30 7 4
30 8 7
30 9 9
30 10 5
30 11 8
30 12 3
30 13 5
30 14 6
30 15 4
30 16 11
30 17 9
30 18 8
30 19 3
30 20 5
30 21 5
30 22 4
30 23 7
30 24 12
30 25 12
30 26 4
30 27 5
30 28 2
30 29 9
30 30 9
30 31 4
30 32 4
30 33 3
30 34 5
30 35 6
30 36 9
30 37 6
30 38 5
30 39 5
30 40 6
30 41 4
30 42 5
30 43 6
30 44 4
30 45 3
30 46 5
30 47 5
30 48 6
30 49 6
30 50 2
30 51 4
30 52 7
30 53 13
30 54 5
30 55 5
30 56 11
30 57 8
30 58 5
30 59 9
30 60 2
30 61 2
30 62 13
30 63 8
30 64 12
30 65 6
30 66 5
30 67 1
30 68 7
30 69 8
30 70 6
30 71 6
30 72 8
30 73 5
30 74 5
30 75 4
30 76 5
30 77 7
30 78 4
30 79 7
30 80 5
30 81 5
30 82 7
30 83 3
30 84 7
30 85 7
30 86 5
30 87 12
30 88 5
30 89 6
30 90 7
30 91 7
30 92 3
30 93 3
30 94 9
30 95 5
30 96 7
30 97 6
30 98 10
30 99 5
30 100 6
31 1 3
31 2 6
31 3 10
31 4 6
31 5 8
31 6 5
31 7 4
31 8 7
31 9 3
31 10 5
31 11 5
31 12 5
31 13 8
31 14 4
31 15 14
31 16 9
31 17 4
31 18 7
31 19 5
31 20 5
31 21 3
31 22 8
31 23 9
31 24 3
31 25 6
31 26 4
31 27 11
31 28 6
31 29 5
31 30 5
31 31 2
31 32 2
31 33 3
31 34 6
31 35 3
31 36 6
31 37 6
31 38 9
31 39 11
31 41 10
31 42 7
31 43 4
31 44 6
31 45 4
31 46 9
31 47 1
31 48 4
31 49 10
31 50 8
31 51 4
31 52 9
31 53 4
31 54 7
31 55 6
31 56 7
31 57 7
31 58 8
31 59 9
31 60 8
31 61 8
31 62 4
31 63 3
31 64 5
31 65 10
31 66 8
31 67 6
31 68 12
31 69 4
31 70 11
31 71 3
31 72 4
31 73 6
31 74 8
31 75 7
31 76 3
31 77 3
31 78 8
31 79 7
31 80 3
31 81 4
31 82 2
31 83 5
31 84 4
31 85 8
31 86 6
31 87 3
31 88 6
31 89 2
31 90 1
31 91 5
31 92 9
31 93 4
31 94 4
31 95 7
31 96 9
31 97 7
31 98 7
31 99 8
31 100 5
32 1 8
32 2 3
32 3 2
32 4 8
32 5 6
32 6 5
32 7 4
32 8 10
32 9 14
32 10 7
32 11 8
32 12 4
32 13 4
32 14 3
32 15 10
32 16 5
32 17 5
32 18 6
32 19 5
32 20 8
32 21 3
32 22 6
32 23 3
32 24 7
32 25 4
32 26 4
32 27 4
32 28 9
32 29 8
32 30 8
32 31 6
32 32 7
32 33 6
32 34 4
32 35 11
32 36 9
32 37 8
32 38 5
32 39 6
32 40 6
32 41 4
32 42 4
32 43 10
32 44 6
32 45 5
32 46 5
32 47 4
32 48 8
32 49 10
32 50 6
32 51 7
32 52 7
32 53 3
32 54 7
32 55 6
32 56 3
32 57 7
32 58 7
32 59 7
32 60 4
32 61 3
32 62 2
32 63 8
32 64 5
32 65 5
32 66 4
32 67 4
32 68 6
32 69 8
32 70 9
32 71 10
32 72 6
32 73 4
32 74 6
32 75 7
32 76 4
32 77 8
32 78 6
32 79 9
32 80 9
32 81 3
32 82 3
32 83 3
32 84 7
32 85 4
32 86 3
32 87 8
32 88 5
32 89 14
32 90 5
32 91 8
32 92 6
32 93 4
32 94 5
32 95 6
32 96 7
32 97 4
32 98 7
32 99 4
32 100 5
33 1 3
33 2 6
33 3 1
33 4 8
33 5 11
33 6 6
33 7 5
33 8 5
33 9 2
33 10 7
33 11 7
33 12 4
33 13 7
33 14 9
33 15 7
33 16 8
33 17 2
33 18 8
33 19 5
33 20 14
33 21 7
33 22 3
33 23 1
33 24 7
33 25 5
33 26 4
33 27 6
33 28 2
33 29 7
33 30 2
33 31 5
33 32 8
33 33 10
33 34 4
33 35 1
33 36 7
33 37 3
33 38 6
33 39 7
33 40 7
33 41 10
33 42 10
33 43 16
33 44 6
33 45 7
33 46 9
33 47 9
33 48 9
33 49 8
33 50 6
33 51 7
33 52 5
33 53 6
33 54 4
33 55 3
33 56 10
33 57 4
33 58 3
33 59 10
33 60 6
33 61 5
33 62 6
33 63 11
33 64 10
33 65 8
33 66 4
33 67 12
33 68 2
33 69 8
33 70 4
33 71 7
33 72 5
33 73 7
33 74 6
33 75 4
33 76 5
33 77 4
33 78 7
33 79 8
33 80 4
33 81 7
33 82 2
33 83 4
33 84 2
33 85 6
33 86 5
33 87 8
33 88 3
33 89 6
33 90 7
33 91 3
33 92 6
33 93 5
33 94 4
33 95 8
33 96 8
33 97 4
33 98 6
33 99 9
33 100 5
34 1 4
34 2 8
34 3 5
34 4 7
34 5 8
34 6 4
34 7 3
34 8 4
34 9 2
34 10 5
34 11 8
34 12 2
34 13 9
34 14 4
34 15 7
34 16 4
34 17 7
34 18 6
34 19 2
34 20 3
34 21 4
34 22 7
34 23 9
34 24 4
34 25 6
34 26 3
34 27 9
34 28 3
34 29 11
34 30 7
34 31 9
34 32 6
34 33 7
34 34 4
34 35 8
34 36 5
34 37 4
34 38 4
34 39 4
34 40 8
34 41 4
34 42 3
34 43 5
34 44 1
34 45 7
34 46 7
34 47 8
34 48 5
34 49 3
34 50 8
34 51 4
34 52 8
34 53 6
34 54 7
34 55 7
34 56 9
34 57 9
34 58 7
34 59 5
34 60 7
34 61 4
34 62 5
34 63 9
34 64 10
34 65 7
34 66 6
34 67 6
34 68 3
34 69 2
34 70 5
34 71 6
34 72 12
34 73 7
34 74 4
34 75 7
34 76 5
34 77 5
34 78 2
34 79 1
34 80 4
34 81 4
34 82 6
34 83 3
34 84 6
34 85 4
34 86 7
34 87 6
34 88 7
34 89 4
34 90 8
34 91 5
34 92 5
34 93 9
34 94 7
34 95 8
34 96 9
34 97 5
34 98 5
34 99 7
34 100 4
35 2 4
35 3 1
35 4 6
35 5 5
35 6 5
35 7 2
35 8 1
35 9 4
35 10 9
35 11 2
35 12 6
35 13 4
35 14 1
35 16 2
35 17 3
35 18 1
35 19 5
35 20 1
35 21 5
35 22 2
35 24 3
35 25 2
35 26 3
35 27 3
35 28 7
35 29 1
35 30 1
35 31 1
35 34 1
35 35 2
35 36 5
35 37 4
35 38 2
35 39 6
35 40 1
35 41 1
35 42 4
35 43 1
35 44 2
35 45 3
35 46 2
35 47 1
35 48 2
35 49 1
35 51 1
35 53 1
35 54 1
35 55 1
35 56 3
35 57 5
35 58 1
35 59 5
35 60 3
35 61 2
35 62 1
35 63 2
35 65 9
35 66 6
35 67 4
35 68 1
35 69 4
35 70 1
35 71 4
35 72 3
35 73 3
35 75 4
35 76 1
35 78 1
35 79 5
35 81 2
35 82 3
35 83 1
35 84 6
35 86 4
35 87 2
35 88 3
35 89 1
35 90 1
35 91 5
35 92 4
35 93 8
35 94 4
35 95 6
35 96 5
35 97 2
35 98 1
35 99 2
35 100 4
36 1 1
36 2 6
36 3 1
36 4 3
36 5 4
36 6 4
36 7 3
36 8 2
36 9 2
36 10 2
36 12 3
36 13 1
36 14 1
36 16 7
36 17 3
36 18 3
36 19 1
36 20 2
36 21 5
36 22 2
36 23 1
36 25 2
36 26 2
36 27 1
36 28 5
36 29 1
36 30 1
36 32 1
36 33 1
36 35 2
36 36 6
36 37 9
36 38 1
36 39 2
36 40 1
36 42 6
36 43 1
36 44 7
36 45 1
36 47 1
36 48 6
36 49 2
36 50 6
36 51 5
36 52 2
36 53 5
36 54 2
36 55 3
36 57 3
36 58 4
36 59 5
36 60 6
36 62 1
36 63 4
36 64 2
36 65 4
36 66 2
36 67 3
36 69 5
36 70 1
36 71 2
36 72 5
36 73 3
36 74 2
36 75 2
36 76 2
36 77 2
36 79 3
36 81 3
36 82 1
36 83 2
36 84 3
36 85 1
36 86 3
36 87 5
36 88 1
36 89 1
36 90 4
36 91 1
36 92 2
36 93 4
36 94 8
36 95 1
36 96 3
36 97 2
36 98 2
36 100 2
37 1 1
37 2 3
37 4 1
37 5 2
37 6 3
37 8 1
37 9 1
37 10 2
37 11 2
37 12 4
37 13 1
37 15 1
37 16 7
37 17 4
37 18 1
37 19 4
37 21 5
37 22 2
37 23 1
37 24 1
37 25 1
37 26 2
37 27 1
37 28 6
37 29 2
37 30 3
37 32 1
37 33 2
37 35 2
37 36 4
37 37 4
37 38 3
37 39 6
37 41 2
37 42 5
37 44 3
37 45 1
37 46 3
37 47 1
37 48 1
37 50 1
37 51 4
37 52 2
37 53 2
37 55 1
37 56 2
37 57 2
37 59 3
37 60 5
37 62 2
37 63 6
37 64 1
37 65 4
37 67 6
37 69 6
37 70 2
37 71 3
37 72 9
37 73 6
37 74 1
37 75 1
37 76 3
37 79 1
37 80 1
37 81 1
37 82 4
37 83 2
37 84 3
37 85 4
37 86 2
37 87 4
37 88 1
37 89 2
37 90 5
37 91 2
37 92 4
37 93 2
37 94 1
37 95 3
37 96 2
37 97 1
37 100 1
38 1 1
38 2 6
38 3 1
38 4 6
38 5 2
38 6 3
38 7 2
38 8 4
38 9 4
38 10 5
38 11 1
38 12 10
38 13 1
38 14 2
38 15 2
38 16 4
38 17 8
38 19 4
38 21 6
38 22 4
38 24 5
38 27 6
38 28 8
38 30 1
38 31 2
38 32 1
38 35 2
38 36 7
38 37 3
38 38 2
38 39 4
38 40 4
38 41 1
38 42 5
38 43 1
38 44 6
38 45 1
38 47 2
38 50 6
38 51 2
38 52 3
38 53 1
38 54 4
38 56 3
38 57 3
38 58 1
38 59 7
38 60 6
38 61 5
38 63 7
38 64 7
38 65 4
38 66 3
38 67 1
38 68 3
38 69 4
38 70 1
38 71 4
38 72 6
38 73 4
38 74 3
38 75 3
38 77 3
38 78 2
38 79 3
38 80 2
38 81 1
38 82 1
38 83 1
38 84 6
38 85 3
38 86 1
38 87 3
38 88 1
38 90 1
38 91 3
38 92 5
38 93 3
38 94 3
38 95 5
38 98 1
38 100 4
39 1 1
39 2 4
39 3 2
39 4 7
39 5 3
39 6 3
39 8 1
39 10 1
39 11 3
39 12 2
39 14 2
39 16 5
39 17 4
39 19 2
39 20 2
39 21 3
39 22 1
39 23 2
39 24 2
39 25 1
39 26 2
39 27 3
39 28 4
39 29 1
39 32 1
39 33 3
39 36 1
39 37 3
39 38 1
39 39 6
39 40 2
39 41 1
39 42 4
39 43 1
39 44 5
39 45 5
39 46 1
39 47 1
39 48 1
39 49 3
39 51 2
39 52 2
39 54 5
39 55 2
39 56 2
39 57 8
39 58 1
39 59 1
39 60 5
39 62 1
39 63 9
39 64 1
39 65 3
39 66 2
39 67 3
39 68 1
39 69 3
39 70 1
39 71 3
39 72 5
39 73 5
39 74 2
39 75 2
39 78 1
39 79 3
39 80 3
39 81 1
39 82 1
39 83 5
39 84 5
39 85 2
39 86 4
39 87 4
39 88 2
39 89 3
39 90 5
39 92 4
39 93 6
39 94 8
39 95 7
39 96 7
39 97 3
39 99 3
39 100 2
40 1 3
40 2 3
40 3 2
40 4 5
40 6 9
40 7 5
40 9 1
40 10 2
40 12 2
40 13 1
40 15 1
40 16 4
40 17 5
40 19 1
40 20 1
40 21 3
40 22 1
40 23 1
40 24 4
40 25 2
40 26 2
40 27 2
40 28 1
40 31 1
40 32 2
40 33 1
40 34 3
40 35 3
40 36 4
40 37 6
40 38 3
40 39 3
40 40 4
40 41 5
40 42 5
40 43 2
40 44 3
40 45 1
40 46 1
40 47 1
40 48 1
40 49 1
40 50 3
40 51 4
40 52 2
40 53 2
40 56 1
40 57 3
40 59 3
40 60 3
40 61 1
40 62 1
40 63 3
40 64 1
40 65 2
40 66 1
40 67 2
40 68 1
40 69 5
40 70 2
40 71 3
40 72 3
40 73 4
40 74 2
40 78 1
40 79 5
40 80 2
40 81 3
40 82 2
40 83 3
40 84 2
40 85 3
40 86 2
40 87 2
40 88 4
40 89 1
40 90 9
40 92 4
40 93 6
40 94 6
40 95 1
40 96 4
40 98 1
40 99 1
40 100 2
41 2 8
41 3 4
41 4 2
41 5 2
41 6 3
41 7 1
41 8 2
41 9 2
41 10 3
41 11 1
41 12 3
41 13 3
41 16 2
41 17 6
41 18 1
41 19 8
41 20 2
41 21 3
41 22 3
41 23 1
41 24 1
41 25 3
41 28 8
41 29 2
41 30 1
41 31 4
41 33 2
41 34 1
41 36 2
41 37 4
41 38 2
41 39 5
41 40 1
41 41 2
41 42 5
41 43 1
41 44 3
41 45 5
41 46 1
41 48 1
41 49 1
41 50 3
41 51 1
41 52 2
41 53 2
41 54 3
41 55 1
41 56 3
41 57 5
41 58 1
41 59 8
41 60 3
41 61 1
41 62 1
41 63 5
41 64 4
41 65 4
41 66 3
41 67 1
41 68 1
41 69 1
41 70 1
41 71 2
41 73 2
41 74 1
41 76 1
41 77 2
41 78 1
41 79 4
41 82 1
41 83 1
41 84 3
41 85 4
41 87 3
41 88 1
41 89 3
41 90 5
41 92 5
41 93 1
41 94 5
41 95 4
41 96 3
41 97 3
41 99 5
41 100 3
42 2 6
42 3 5
42 4 11
42 5 1
42 6 3
42 8 2
42 9 4
42 10 11
42 12 5
42 13 2
42 14 1
42 15 1
42 16 1
42 17 7
42 18 1
42 19 2
42 20 3
42 21 2
42 24 3
42 25 1
42 27 1
42 28 6
42 29 2
42 30 2
42 31 2
42 32 4
42 34 1
42 36 5
42 37 4
42 39 1
42 40 3
42 42 3
42 44 2
42 45 1
42 46 2
42 47 2
42 48 1
42 49 2
42 50 4
42 51 2
42 52 2
42 53 2
42 54 2
42 56 2
42 57 6
42 58 1
42 59 5
42 60 8
42 62 3
42 63 6
42 64 1
42 65 5
42 66 1
42 67 10
42 69 2
42 70 1
42 71 4
42 72 1
42 73 6
42 74 1
42 75 1
42 76 2
42 77 1
42 79 3
42 83 6
42 84 2
42 85 3
42 86 2
42 87 5
42 88 1
42 90 4
42 91 1
42 92 6
42 93 1
42 94 2
42 95 5
42 98 1
42 100 2
43 1 3
43 2 3
43 3 1
43 4 5
43 5 4
43 6 5
43 7 1
43 8 1
43 9 3
43 10 5
43 12 6
43 13 1
43 14 1
43 16 1
43 19 2
43 20 4
43 21 5
43 22 3
43 24 3
43 25 2
43 26 2
43 27 2
43 28 2
43 29 2
43 30 1
43 31 1
43 32 1
43 33 2
43 34 1
43 35 1
43 36 6
43 37 7
43 38 3
43 39 6
43 40 2
43 42 9
43 43 1
43 44 6
43 45 3
43 47 1
43 50 4
43 51 2
43 52 1
43 53 1
43 54 1
43 57 4
43 58 1
43 59 6
43 60 7
43 62 2
43 63 4
43 65 2
43 66 1
43 67 5
43 68 2
43 69 6
43 70 2
43 71 2
43 72 5
43 73 1
43 74 2
43 75 3
43 78 1
43 79 6
43 80 5
43 82 2
43 83 3
43 84 3
43 85 5
43 87 5
43 89 1
43 90 2
43 91 2
43 92 4
43 93 2
43 94 3
43 95 4
43 96 5
43 97 3
43 98 2
43 99 1
44 1 2
44 2 1
44 3 2
44 4 6
44 5 4
44 6 4
44 7 4
44 9 2
44 10 1
44 11 3
44 12 2
44 13 2
44 14 1
44 16 1
44 17 5
44 19 2
44 20 1
44 21 6
44 23 1
44 24 3
44 25 2
44 26 2
44 27 1
44 28 5
44 29 2
44 31 2
44 32 3
44 33 1
44 34 3
44 35 2
44 36 2
44 37 8
44 39 9
44 41 1
44 42 2
44 43 2
44 44 9
44 45 4
44 46 3
44 47 3
44 48 1
44 49 3
44 50 7
44 51 2
44 52 2
44 54 1
44 56 3
44 57 2
44 58 1
44 59 10
44 60 8
44 61 1
44 62 2
44 63 4
44 64 4
44 65 4
44 67 7
44 68 2
44 69 3
44 70 1
44 71 5
44 72 5
44 73 1
44 74 1
44 75 3
44 76 1
44 77 1
44 78 1
44 79 6
44 80 3
44 84 3
44 85 2
44 87 5
44 88 1
44 89 2
44 90 4
44 92 3
44 93 2
44 94 5
44 95 3
44 96 2
44 97 4
44 98 2
44 99 2
44 100 5
45 1 1
45 2 5
45 3 5
45 4 2
45 5 3
45 6 5
45 7 1
45 8 3
45 9 2
45 10 3
45 11 1
45 12 3
45 13 1
45 14 1
45 15 1
45 16 1
45 17 5
45 18 1
45 19 4
45 20 3
45 21 6
45 22 2
45 23 1
45 24 1
45 25 2
45 26 6
45 27 3
45 28 4
45 29 1
45 30 2
45 31 2
45 33 1
45 34 1
45 35 11
45 36 1
45 37 4
45 38 1
45 39 5
45 40 1
45 41 3
45 42 1
45 43 1
45 44 5
45 46 3
45 47 2
45 48 3
45 49 2
45 50 5
45 51 2
45 52 2
45 54 1
45 55 1
45 57 9
45 59 5
45 60 5
45 61 1
45 62 2
45 63 5
45 64 1
45 65 4
45 66 1
45 67 5
45 68 2
45 70 2
45 71 2
45 72 5
45 73 3
45 74 1
45 76 1
45 78 1
45 79 1
45 82 2
45 83 2
45 84 6
45 85 5
45 86 1
45 87 4
45 88 2
45 89 3
45 90 6
45 91 2
45 93 5
45 94 6
45 95 4
45 96 2
45 97 3
45 99 2
45 100 1
46 1 3
46 2 6
46 4 4
46 5 4
46 6 2
46 7 2
46 8 1
46 9 1
46 10 5
46 11 1
46 12 3
46 13 1
46 14 2
46 15 1
46 16 6
46 17 2
46 18 2
46 19 11
46 20 3
46 21 6
46 22 3
46 23 6
46 25 1
46 26 1
46 27 3
46 28 9
46 29 2
46 30 1
46 34 3
46 35 2
46 36 6
46 37 4
46 39 2
46 40 1
46 41 1
46 42 5
46 43 2
46 44 3
46 45 1
46 47 5
46 48 3
46 49 2
46 50 4
46 51 1
46 52 3
46 53 2
46 54 2
46 55 3
46 56 2
46 57 3
46 58 5
46 59 6
46 60 1
46 61 1
46 62 1
46 63 1
46 64 1
46 65 5
46 66 1
46 67 4
46 68 3
46 69 1
46 71 6
46 72 4
46 73 1
46 74 5
46 75 4
46 76 1
46 77 1
46 79 3
46 81 1
46 82 1
46 83 2
46 84 3
46 85 3
46 87 3
46 88 2
46 89 2
46 90 4
46 91 1
46 92 5
46 93 2
46 94 6
46 95 5
46 96 7
46 97 2
46 98 1
46 99 1
47 1 2
47 2 2
47 3 2
47 4 6
47 5 2
47 6 1
47 7 1
47 8 3
47 9 1
47 10 2
47 11 2
47 12 3
47 13 3
47 14 2
47 16 4
47 17 7
47 18 2
47 19 3
47 20 1
47 21 3
47 22 4
47 23 4
47 24 3
47 25 1
47 26 5
47 28 4
47 29 1
47 31 4
47 32 3
47 33 1
47 34 2
47 35 1
47 36 1
47 37 3
47 38 1
47 39 4
47 41 5
47 42 1
47 43 1
47 44 2
47 45 5
47 46 1
47 47 1
47 49 1
47 50 4
47 51 1
47 54 2
47 56 3
47 57 5
47 58 2
47 59 2
47 60 6
47 63 5
47 64 5
47 65 6
47 67 3
47 69 5
47 70 3
47 71 3
47 72 8
47 73 6
47 74 1
47 76 1
47 77 2
47 78 1
47 79 4
47 80 2
47 81 1
47 82 3
47 84 3
47 85 1
47 86 2
47 87 1
47 88 3
47 89 2
47 90 6
47 91 3
47 92 2
47 93 9
47 94 5
47 95 5
47 96 2
47 97 3
47 98 3
47 99 2
48 1 1
48 2 4
48 3 2
48 4 3
48 5 4
48 6 6
48 7 2
48 8 2
48 9 2
48 10 3
48 11 3
48 12 5
48 13 1
48 14 2
48 15 2
48 16 2
48 17 4
48 18 3
48 19 7
48 20 2
48 23 1
48 24 1
48 26 1
48 27 1
48 28 5
48 29 1
48 32 1
48 33 2
48 34 2
48 35 3
48 36 4
48 37 2
48 39 4
48 40 3
48 41 1
48 42 6
48 44 4
48 45 2
48 46 1
48 47 1
48 48 3
48 49 4
48 50 3
48 52 3
48 53 2
48 56 1
48 57 5
48 58 3
48 59 7
48 60 3
48 61 2
48 62 5
48 63 6
48 64 1
48 65 4
48 67 1
48 68 2
48 69 7
48 70 1
48 71 2
48 72 8
48 73 6
48 74 1
48 75 2
48 76 1
48 77 2
48 79 5
48 81 3
48 82 3
48 83 6
48 84 1
48 87 7
48 88 1
48 89 3
48 90 4
48 91 1
48 92 5
48 93 6
48 94 3
48 95 1
48 96 2
48 97 1
48 98 2
48 99 1
48 100 1
49 1 4
49 2 2
49 3 4
49 4 7
49 5 4
49 6 6
49 7 3
49 8 2
49 10 7
49 11 2
49 12 10
49 14 2
49 15 3
49 16 7
49 17 3
49 19 2
49 21 1
49 22 1
49 23 4
49 24 1
49 25 1
49 26 2
49 27 2
49 28 1
49 29 1
49 31 3
49 32 1
49 33 1
49 36 1
49 37 3
49 39 2
49 40 3
49 41 4
49 42 2
49 44 4
49 45 1
49 47 1
49 48 1
49 49 2
49 50 4
49 51 5
49 52 2
49 53 3
49 54 5
49 55 2
49 56 1
49 57 4
49 58 3
49 59 5
49 60 2
49 61 2
49 62 3
49 63 7
49 64 2
49 65 5
49 66 1
49 67 1
49 69 4
49 70 1
49 71 5
49 72 2
49 73 5
49 74 2
49 75 2
49 76 4
49 77 3
49 78 2
49 79 3
49 80 1
49 81 4
49 82 1
49 83 2
49 84 8
49 85 6
49 86 1
49 88 1
49 89 2
49 90 5
49 91 1
49 92 5
49 93 3
49 94 1
49 95 5
49 96 3
49 97 5
49 98 1
49 100 2
50 1 3
50 2 7
50 3 3
50 4 7
50 5 3
50 6 5
50 7 2
50 8 2
50 9 2
50 10 4
50 11 4
50 12 8
50 13 1
50 14 1
50 15 2
50 16 5
50 17 1
50 18 1
50 19 6
50 20 1
50 21 7
50 23 2
50 24 1
50 25 2
50 26 2
50 28 7
50 29 3
50 30 3
50 31 1
50 32 1
50 33 6
50 34 1
50 36 2
50 37 1
50 38 1
50 39 4
50 40 6
50 41 2
50 42 5
50 43 1
50 44 9
50 45 2
50 46 2
50 47 2
50 49 1
50 50 2
50 51 1
50 53 2
50 55 3
50 57 6
50 58 1
50 59 3
50 60 4
50 61 1
50 62 3
50 63 3
50 64 2
50 65 2
50 66 2
50 67 5
50 68 2
50 69 5
50 71 4
50 72 5
50 73 4
50 74 1
50 75 3
50 77 1
50 78 1
50 79 9
50 80 2
50 81 1
50 82 2
50 84 5
50 85 6
50 86 2
50 87 1
50 88 1
50 89 2
50 90 5
50 91 2
50 92 5
50 93 3
50 94 5
50 95 5
50 96 4
50 99 2
50 100 1
51 1 2
51 2 5
51 3 2
51 4 5
51 5 4
51 6 2
51 7 1
51 8 1
51 9 1
51 10 4
51 11 1
51 12 5
51 14 1
51 15 3
51 16 5
51 17 2
51 18 2
51 19 2
51 20 2
51 21 3
51 22 2
51 23 3
51 24 1
51 25 1
51 27 1
51 28 3
51 29 2
51 30 1
51 31 1
51 32 4
51 33 1
51 35 2
51 36 6
51 37 5
51 38 1
51 39 6
51 40 2
51 42 3
51 43 2
51 44 1
51 45 2
51 46 3
51 47 1
51 48 4
51 50 8
51 51 2
51 52 1
51 53 1
51 54 2
51 55 4
51 56 2
51 57 3
51 58 3
51 59 2
51 60 1
51 63 8
51 64 1
51 65 5
51 67 1
51 68 3
51 69 4
51 71 4
51 72 3
51 73 11
51 74 1
51 75 2
51 77 1
51 79 2
51 80 4
51 81 3
51 82 2
51 83 1
51 84 4
51 85 2
51 87 3
51 88 1
51 89 2
51 90 3
51 91 2
51 92 4
51 93 1
51 94 4
51 95 7
51 96 6
51 97 1
51 98 1
51 99 4
51 100 2
52 1 1
52 2 1
52 3 3
52 4 9
52 5 3
52 6 6
52 7 1
52 8 1
52 9 2
52 10 7
52 11 1
52 12 2
52 13 1
52 14 3
52 15 1
52 16 4
52 17 3
52 18 3
52 19 6
52 21 3
52 24 2
52 25 1
52 28 8
52 29 2
52 30 1
52 31 1
52 32 3
52 33 2
52 34 3
52 35 4
52 36 7
52 37 4
52 38 1
52 39 1
52 40 1
52 42 3
52 43 2
52 44 2
52 45 2
52 46 2
52 47 2
52 48 1
52 49 3
52 50 3
52 51 2
52 52 1
52 53 1
52 54 1
52 56 1
52 57 2
52 58 3
52 59 4
52 60 4
52 62 1
52 63 7
52 64 2
52 65 3
52 66 2
52 67 3
52 68 1
52 69 6
52 70 2
52 71 7
52 73 7
52 74 3
52 75 1
52 77 3
52 79 7
52 80 3
52 81 1
52 82 2
52 83 4
52 84 5
52 85 6
52 86 1
52 87 8
52 88 3
52 89 2
52 90 7
52 91 2
52 92 4
52 93 1
52 94 2
52 95 3
52 96 4
52 97 2
52 98 1
52 99 2
52 100 1
53 1 2
53 2 1
53 3 1
53 4 4
53 5 6
53 6 4
53 8 2
53 9 3
53 10 1
53 11 1
53 12 8
53 14 2
53 15 1
53 16 6
53 17 4
53 18 2
53 19 2
53 20 1
53 21 5
53 22 1
53 24 1
53 26 1
53 27 1
53 28 3
53 29 1
53 30 1
53 31 4
53 32 1
53 33 4
53 34 2
53 35 1
53 36 5
53 37 4
53 40 1
53 42 3
53 44 3
53 45 1
53 46 2
53 47 1
53 48 3
53 50 3
53 51 2
53 52 1
53 53 2
53 54 4
53 55 2
53 56 2
53 57 3
53 58 4
53 59 1
53 60 6
53 61 1
53 63 3
53 65 8
53 66 3
53 67 4
53 68 2
53 69 6
53 70 2
53 71 1
53 72 8
53 73 4
53 74 1
53 75 2
53 76 1
53 77 2
53 78 1
53 79 3
53 81 3
53 82 1
53 83 2
53 84 3
53 85 3
53 86 2
53 87 7
53 88 2
53 89 2
53 90 2
53 91 2
53 92 3
53 93 2
53 94 2
53 95 3
53 96 3
53 97 2
53 98 2
53 99 3
53 100 5
54 1 1
54 2 3
54 3 4
54 4 6
54 5 5
54 6 2
54 8 1
54 9 2
54 10 4
54 11 1
54 13 2
54 14 3
54 15 3
54 16 3
54 17 4
54 18 1
54 19 2
54 20 1
54 21 3
54 22 2
54 23 2
54 24 2
54 25 2
54 26 1
54 27 2
54 28 3
54 29 3
54 31 1
54 32 1
54 33 2
54 34 4
54 35 1
54 36 4
54 37 3
54 39 6
54 40 5
54 41 2
54 42 5
54 43 3
54 44 7
54 45 3
54 46 1
54 48 2
54 49 3
54 50 3
54 53 1
54 54 1
54 56 1
54 57 6
54 58 1
54 59 5
54 60 4
54 61 2
54 62 3
54 63 4
54 64 3
54 65 1
54 66 4
54 67 4
54 68 1
54 69 8
54 70 1
54 71 3
54 72 7
54 73 5
54 74 1
54 76 5
54 77 1
54 78 1
54 79 5
54 80 1
54 82 4
54 84 8
54 85 7
54 86 2
54 87 4
54 88 2
54 90 7
54 91 2
54 92 3
54 93 2
54 94 9
54 95 2
54 96 8
54 98 1
54 99 2
54 100 2
55 1 3
55 2 1
55 3 1
55 4 5
55 5 1
55 6 1
55 7 1
55 9 2
55 10 2
55 11 2
55 12 6
55 16 4
55 17 2
55 18 4
55 19 7
55 20 2
55 21 4
55 22 2
55 23 2
55 24 1
55 25 1
55 26 2
55 27 1
55 28 4
55 29 1
55 32 1
55 33 1
55 34 2
55 36 1
55 37 8
55 38 3
55 39 3
55 41 3
55 42 3
55 43 2
55 44 4
55 45 3
55 46 2
55 47 4
55 48 2
55 50 6
55 51 3
55 52 1
55 53 2
55 54 3
55 55 1
55 56 2
55 57 6
55 58 1
55 59 4
55 60 4
55 61 2
55 63 3
55 64 1
55 65 1
55 67 4
55 68 2
55 69 4
55 70 3
55 71 5
55 72 2
55 73 6
55 74 2
55 76 3
55 77 2
55 79 2
55 83 3
55 84 6
55 85 4
55 87 1
55 88 5
55 90 1
55 91 1
55 92 4
55 93 4
55 94 2
55 95 4
55 96 5
55 97 1
55 98 4
55 100 3
56 1 1
56 2 2
56 3 1
56 4 6
56 5 6
56 7 1
56 8 4
56 10 6
56 11 4
56 12 4
56 13 1
56 14 2
56 15 1
56 16 1
56 17 6
56 18 3
56 19 4
56 20 2
56 21 6
56 23 3
56 24 1
56 25 1
56 26 3
56 28 1
56 29 1
56 31 2
56 32 1
56 35 3
56 36 3
56 37 5
56 38 1
56 39 4
56 40 2
56 42 10
56 43 2
56 44 2
56 45 1
56 46 3
56 48 1
56 49 1
56 50 3
56 51 1
56 52 1
56 54 2
56 56 1
56 57 2
56 58 1
56 59 4
56 60 2
56 62 2
56 63 3
56 64 2
56 65 4
56 66 1
56 67 3
56 68 2
56 69 3
56 70 2
56 71 3
56 72 5
56 73 2
56 74 3
56 75 3
56 76 3
56 78 1
56 79 11
56 81 2
56 82 3
56 84 2
56 85 2
56 86 1
56 87 6
56 89 3
56 90 2
56 91 2
56 92 4
56 93 2
56 94 2
56 95 4
56 96 2
56 98 2
56 99 4
56 100 2
57 1 2
57 2 5
57 3 2
57 4 8
57 5 4
57 6 4
57 7 1
57 9 2
57 10 4
57 11 1
57 12 3
57 15 1
57 16 2
57 17 4
57 18 2
57 19 3
57 20 1
57 21 4
57 22 2
57 23 2
57 24 2
57 25 2
57 26 3
57 28 3
57 29 1
57 30 3
57 31 1
57 34 2
57 36 3
57 37 5
57 39 5
57 40 1
57 42 2
57 43 1
57 44 3
57 45 3
57 47 4
57 48 1
57 50 5
57 53 2
57 54 1
57 55 1
57 56 3
57 57 2
57 58 1
57 59 4
57 60 2
57 61 1
57 62 1
57 63 5
57 64 1
57 65 5
57 66 1
57 67 3
57 69 2
57 71 7
57 72 5
57 73 4
57 74 1
57 75 1
57 76 1
57 78 1
57 79 6
57 81 1
57 83 1
57 84 4
57 85 5
57 87 4
57 88 3
57 89 2
57 90 3
57 91 1
57 92 6
57 93 4
57 94 8
57 95 5
57 98 2
57 99 2
57 100 1
58 1 1
58 2 7
58 3 3
58 4 4
58 5 3
58 6 2
58 7 1
58 8 1
58 9 3
58 10 2
58 11 2
58 12 4
58 15 2
58 16 5
58 17 1
58 18 2
58 19 1
58 20 3
58 21 2
58 22 3
58 23 2
58 24 3
58 25 1
58 26 1
58 27 3
58 28 6
58 30 3
58 31 2
58 32 3
58 33 1
58 34 2
58 35 2
58 36 2
58 37 5
58 38 1
58 39 2
58 40 5
58 42 5
58 43 1
58 44 7
58 45 1
58 46 1
58 47 2
58 48 2
58 50 4
58 51 1
58 52 3
58 54 3
58 56 4
58 57 7
58 59 6
58 60 9
58 61 3
58 62 1
58 63 6
58 64 1
58 65 3
58 67 1
58 68 3
58 69 2
58 70 3
58 71 4
58 72 1
58 73 2
58 74 3
58 75 1
58 77 2
58 78 1
58 79 6
58 80 1
58 81 1
58 82 3
58 83 1
58 84 5
58 85 5
58 86 1
58 87 6
58 88 1
58 89 3
58 90 1
58 91 1
58 92 1
58 93 6
58 94 3
58 95 8
58 96 2
58 97 1
58 99 2
58 100 1
59 1 2
59 2 6
59 3 3
59 4 2
59 5 4
59 6 5
59 8 4
59 10 6
59 11 2
59 12 4
59 13 1
59 14 2
59 15 3
59 16 2
59 17 4
59 18 2
59 19 6
59 20 4
59 21 4
59 23 1
59 24 2
59 25 1
59 26 3
59 28 3
59 29 2
59 30 2
59 31 3
59 32 1
59 33 1
59 34 2
59 36 3
59 37 8
59 38 1
59 39 2
59 40 1
59 41 1
59 42 4
59 43 1
59 44 9
59 45 1
59 46 1
59 48 2
59 49 2
59 50 1
59 51 1
59 52 1
59 53 1
59 54 2
59 55 2
59 56 3
59 57 1
59 59 3
59 60 5
59 61 2
59 63 3
59 65 8
59 66 2
59 67 3
59 68 2
59 69 6
59 70 2
59 71 1
59 72 6
59 73 3
59 74 1
59 75 1
59 76 3
59 77 1
59 78 1
59 79 3
59 80 1
59 81 2
59 82 3
59 83 2
59 84 7
59 85 5
59 87 4
59 89 1
59 90 3
59 91 3
59 92 2
59 93 3
59 94 6
59 95 6
59 96 2
59 97 1
59 98 2
59 99 1
59 100 3
60 1 1
60 2 1
60 3 5
60 4 7
60 5 1
60 6 1
60 8 2
60 9 1
60 10 3
60 11 1
60 12 1
60 14 2
60 15 2
60 16 4
60 17 2
60 18 1
60 19 4
60 20 1
60 21 4
60 22 1
60 23 3
60 24 1
60 25 1
60 26 2
60 27 3
60 28 3
60 29 1
60 31 3
60 32 1
60 33 1
60 34 3
60 36 2
60 37 2
60 38 2
60 39 5
60 40 3
60 41 1
60 42 3
60 43 2
60 44 4
60 46 4
60 47 1
60 48 1
60 50 1
60 51 1
60 52 1
60 53 2
60 55 1
60 57 4
60 58 1
60 59 2
60 60 1
60 61 2
60 62 2
60 63 2
60 64 1
60 65 7
60 66 1
60 67 6
60 68 3
60 69 3
60 70 2
60 71 2
60 72 4
60 73 2
60 75 1
60 77 2
60 78 4
60 79 7
60 80 1
60 82 2
60 83 1
60 84 6
60 85 2
60 87 3
60 88 1
60 89 5
60 90 4
60 91 1
60 92 5
60 93 6
60 94 1
60 96 6
60 97 2
60 98 1
60 99 1
60 100 2
61 1 2
61 2 6
61 4 5
61 5 6
61 6 4
61 8 3
61 9 1
61 10 5
61 11 2
61 12 3
61 13 2
61 15 1
61 16 4
61 17 4
61 18 2
61 19 5
61 20 1
61 21 4
61 22 2
61 23 1
61 24 1
61 25 1
61 27 2
61 28 3
61 29 1
61 30 1
61 31 1
61 34 3
61 36 5
61 37 5
61 38 2
61 39 6
61 40 2
61 41 1
61 42 4
61 43 1
61 44 4
61 45 2
61 46 1
61 47 2
61 48 2
61 49 3
61 50 5
61 51 1
61 52 1
61 54 1
61 55 1
61 56 1
61 57 6
61 59 3
61 60 5
61 62 1
61 63 3
61 64 3
61 65 4
61 67 1
61 69 6
61 70 1
61 71 7
61 72 6
61 73 1
61 74 2
61 75 1
61 76 2
61 77 3
61 78 1
61 79 4
61 80 3
61 81 1
61 83 1
61 84 1
61 85 6
61 86 2
61 87 7
61 88 4
61 89 1
61 90 4
61 91 1
61 92 1
61 93 5
61 94 2
61 95 4
61 96 6
61 97 2
61 98 3
61 99 3
61 100 2
62 1 1
62 2 4
62 3 1
62 4 2
62 5 3
62 6 1
62 7 1
62 8 2
62 9 4
62 10 7
62 12 1
62 13 1
62 14 2
62 15 2
62 16 3
62 18 2
62 19 2
62 20 2
62 21 5
62 22 2
62 23 2
62 24 3
62 25 2
62 26 2
62 27 1
62 28 5
62 29 1
62 30 3
62 31 2
62 32 1
62 33 1
62 35 1
62 36 5
62 37 3
62 38 3
62 39 3
62 40 1
62 42 9
62 43 2
62 44 2
62 45 1
62 46 2
62 47 1
62 48 2
62 49 1
62 50 4
62 51 2
62 52 1
62 54 2
62 55 1
62 57 5
62 58 2
62 59 6
62 60 2
62 61 3
62 63 9
62 64 2
62 65 4
62 66 2
62 67 6
62 68 2
62 69 5
62 70 6
62 71 4
62 72 4
62 73 9
62 75 3
62 76 6
62 77 2
62 78 1
62 79 3
62 80 1
62 81 1
62 82 2
62 83 1
62 84 1
62 85 6
62 87 5
62 88 5
62 89 6
62 90 6
62 91 1
62 93 4
62 94 4
62 95 2
62 96 2
62 98 3
62 99 1
62 100 2
63 1 3
63 2 3
63 3 2
63 4 4
63 5 2
63 6 6
63 7 1
63 8 1
63 9 2
63 10 6
63 11 1
63 12 4
63 13 2
63 14 1
63 15 3
63 16 4
63 17 6
63 18 1
63 19 5
63 21 11
63 22 1
63 23 1
63 24 5
63 25 2
63 27 1
63 28 1
63 29 1
63 30 2
63 31 1
63 32 1
63 34 3
63 35 1
63 36 6
63 37 6
63 38 2
63 39 2
63 40 1
63 41 1
63 42 3
63 44 4
63 45 2
63 46 2
63 47 6
63 48 1
63 50 2
63 53 1
63 54 2
63 55 1
63 56 2
63 57 3
63 58 1
63 59 4
63 60 1
63 62 6
63 63 7
63 64 2
63 65 2
63 66 1
63 67 3
63 68 2
63 69 2
63 70 1
63 71 5
63 72 3
63 73 5
63 74 2
63 75 2
63 77 1
63 78 2
63 79 4
63 81 3
63 82 1
63 83 1
63 84 2
63 85 4
63 87 3
63 88 3
63 89 2
63 90 4
63 91 1
63 92 3
63 93 3
63 94 5
63 95 9
63 96 2
63 97 2
63 98 2
63 99 1
64 1 1
64 2 6
64 3 1
64 4 1
64 5 6
64 6 3
64 7 3
64 8 1
64 9 2
64 10 4
64 11 2
64 12 4
64 13 2
64 16 7
64 17 3
64 18 1
64 19 1
64 21 3
64 22 2
64 23 2
64 25 1
64 26 5
64 27 1
64 28 4
64 29 2
64 30 2
64 31 1
64 32 1
64 33 3
64 35 4
64 36 3
64 37 2
64 38 2
64 39 6
64 41 2
64 42 2
64 44 2
64 45 2
64 47 1
64 48 2
64 49 3
64 50 6
64 51 2
64 53 3
64 54 2
64 55 3
64 57 5
64 59 3
64 60 2
64 63 6
64 64 2
64 65 8
64 66 3
64 69 2
64 70 2
64 71 5
64 72 4
64 73 5
64 74 2
64 75 2
64 78 2
64 79 2
64 80 1
64 81 2
64 82 2
64 83 4
64 84 8
64 85 5
64 87 3
64 88 3
64 89 1
64 90 6
64 91 2
64 92 5
64 93 4
64 94 6
64 95 2
64 96 3
64 97 4
64 98 1
64 99 1
64 100 4
65 1 9
65 2 1
65 3 5
65 4 2
65 6 2
65 7 1
65 8 4
65 9 4
65 11 3
65 12 1
65 13 4
65 14 2
65 15 1
65 16 3
65 17 1
65 18 4
65 19 7
65 20 1
65 21 1
65 23 1
65 24 2
65 25 9
65 26 2
65 27 1
65 28 1
65 29 4
65 30 3
65 31 2
65 32 3
65 33 2
65 34 1
65 35 5
65 36 1
65 37 3
65 38 3
65 39 3
65 40 2
65 41 3
65 42 1
65 43 5
65 44 2
65 45 4
65 46 1
65 48 3
65 49 3
65 50 2
65 51 4
65 52 1
65 53 2
65 54 2
65 55 9
65 56 1
65 58 1
65 59 3
65 60 3
65 61 5
65 62 4
65 63 1
65 64 1
65 66 1
65 67 5
65 68 5
65 69 5
65 70 1
65 72 4
65 73 4
65 74 1
65 75 2
65 76 2
65 77 3
65 78 2
65 80 5
65 81 7
65 82 3
65 83 1
65 84 3
65 85 3
65 87 4
65 88 2
65 90 4
65 91 1
65 92 3
65 93 4
65 95 2
65 96 1
65 97 4
65 98 4
65 99 3
65 100 4
66 2 3
66 3 2
66 5 5
66 6 2
66 7 1
66 8 3
66 9 6
66 10 4
66 11 5
66 12 3
66 13 1
66 14 1
66 15 1
66 16 1
66 17 3
66 18 5
66 19 6
66 20 3
66 21 2
66 22 3
66 23 1
66 24 4
66 25 3
66 28 4
66 29 1
66 30 1
66 31 1
66 32 1
66 33 1
66 34 4
66 35 1
66 37 2
66 38 7
66 39 1
66 40 6
66 41 2
66 42 3
66 43 4
66 44 4
66 45 1
66 46 2
66 47 3
66 50 3
66 51 4
66 52 2
66 54 4
66 55 3
66 56 5
66 57 3
66 58 4
66 59 3
66 60 1
66 61 6
66 62 4
66 63 1
66 64 3
66 65 1
66 66 4
66 67 4
66 68 1
66 70 1
66 71 1
66 72 1
66 73 5
66 74 5
66 75 3
66 76 2
66 77 3
66 78 4
66 79 3
66 80 1
66 81 1
66 82 2
66 83 2
66 84 5
66 85 3
66 86 4
66 87 5
66 88 3
66 89 4
66 90 2
66 91 3
66 92 4
66 93 5
66 95 2
66 96 1
66 97 4
66 98 3
66 99 10
66 100 1
67 1 1
67 2 5
67 3 4
67 4 2
67 5 1
67 6 4
67 7 2
67 8 2
67 9 5
67 10 4
67 11 2
67 12 4
67 14 4
67 15 4
67 16 2
67 18 1
67 19 2
67 20 3
67 21 1
67 22 1
67 23 4
67 24 2
67 25 5
67 26 3
67 27 2
67 28 1
67 29 6
67 30 2
67 31 3
67 32 6
67 33 1
67 34 2
67 35 3
67 36 2
67 37 4
67 38 1
67 39 3
67 40 1
67 41 3
67 42 2
67 43 1
67 44 1
67 45 3
67 46 1
67 47 2
67 48 2
67 49 1
67 50 3
67 51 4
67 52 1
67 53 3
67 54 5
67 55 3
67 56 2
67 57 2
67 58 6
67 59 2
67 60 2
67 61 2
67 62 1
67 63 2
67 64 3
67 66 1
67 67 1
67 68 1
67 69 3
67 70 2
67 71 7
67 74 2
67 75 1
67 76 2
67 77 3
67 78 3
67 80 1
67 81 5
67 82 2
67 83 2
67 85 4
67 86 2
67 88 4
67 89 5
67 90 5
67 91 3
67 92 1
67 93 2
67 94 3
67 95 4
67 96 2
67 97 5
67 98 3
67 99 1
67 100 2
68 1 2
68 2 7
68 3 1
68 4 8
68 5 9
68 6 16
68 7 2
68 8 3
68 9 3
68 10 10
68 11 6
68 12 8
68 13 2
68 14 2
68 15 2
68 16 16
68 17 1
68 19 13
68 20 5
68 21 9
68 22 3
68 23 3
68 24 2
68 25 2
68 26 2
68 27 2
68 28 8
68 29 6
68 30 6
68 31 4
68 32 1
68 33 4
68 36 9
68 37 5
68 38 4
68 39 15
68 40 6
68 41 2
68 42 5
68 43 2
68 44 12
68 45 2
68 46 6
68 47 3
68 48 4
68 49 3
68 50 14
68 51 8
68 52 4
68 53 4
68 54 3
68 55 1
68 56 1
68 57 7
68 58 3
68 59 8
68 60 7
68 61 2
68 62 2
68 63 11
68 64 2
68 65 12
68 66 2
68 67 7
68 68 4
68 69 10
68 70 4
68 71 11
68 72 7
68 73 9
68 74 7
68 75 1
68 76 3
68 77 4
68 78 3
68 79 10
68 80 4
68 82 1
68 83 4
68 84 9
68 85 8
68 86 1
68 87 10
68 88 5
68 90 7
68 91 2
68 92 5
68 93 9
68 94 14
68 95 8
68 96 4
68 97 1
68 98 4
68 99 5
68 100 4
69 1 2
69 2 10
69 3 4
69 4 12
69 5 7
69 6 5
69 7 4
69 8 2
69 9 2
69 10 15
69 11 5
69 12 8
69 13 2
69 14 7
69 15 2
69 16 9
69 17 14
69 18 4
69 19 12
69 21 5
69 22 6
69 23 2
69 24 3
69 25 6
69 27 4
69 28 5
69 29 3
69 30 4
69 31 2
69 32 1
69 33 2
69 34 3
69 36 4
69 37 11
69 38 4
69 39 6
69 40 3
69 41 2
69 42 12
69 44 11
69 45 4
69 47 4
69 48 4
69 49 4
69 50 8
69 51 3
69 52 1
69 53 3
69 54 1
69 55 4
69 56 5
69 57 11
69 58 5
69 59 7
69 60 5
69 61 5
69 62 1
69 63 12
69 64 3
69 65 10
69 66 3
69 67 13
69 68 7
69 69 8
69 70 4
69 71 14
69 72 13
69 73 10
69 74 2
69 75 5
69 76 4
69 77 3
69 78 4
69 79 9
69 80 2
69 81 3
69 82 4
69 83 3
69 84 10
69 85 7
69 86 4
69 87 9
69 88 4
69 89 4
69 90 4
69 91 2
69 92 16
69 93 2
69 94 8
69 95 5
69 96 12
69 97 1
69 98 2
69 100 7
70 1 1
70 2 4
70 3 1
70 4 6
70 5 5
70 6 5
70 10 13
70 12 5
70 13 1
70 16 5
70 17 6
70 18 1
70 19 5
70 21 8
70 24 1
70 27 1
70 28 7
70 29 2
70 34 1
70 36 5
70 37 8
70 38 1
70 39 5
70 40 1
70 42 9
70 43 1
70 44 3
70 46 1
70 47 2
70 50 6
70 51 2
70 52 1
70 53 1
70 55 1
70 56 1
70 57 9
70 58 1
70 59 13
70 60 7
70 61 3
70 63 9
70 64 1
70 65 5
70 67 6
70 69 6
70 71 4
70 72 3
70 73 11
70 79 11
70 84 3
70 85 8
70 86 3
70 87 5
70 90 6
70 92 2
70 93 8
70 94 6
70 95 8
70 96 6
70 98 1
70 100 1
71 2 6
71 4 4
71 5 5
71 6 9
71 9 2
71 10 9
71 11 1
71 12 4
71 15 1
71 16 6
71 17 4
71 19 4
71 20 1
71 21 6
71 25 3
71 27 1
71 28 6
71 30 1
71 35 1
71 36 5
71 37 10
71 38 2
71 39 3
71 42 6
71 44 5
71 45 1
71 48 1
71 49 2
71 50 8
71 51 1
71 52 2
71 57 8
71 58 2
71 59 7
71 60 7
71 63 5
71 65 8
71 67 10
71 68 1
71 69 8
71 71 8
71 72 7
71 73 7
71 74 1
71 75 2
71 78 1
71 79 16
71 81 1
71 82 1
71 84 5
71 85 5
71 86 1
71 87 7
71 89 1
71 90 8
71 92 11
71 93 7
71 94 5
71 95 8
71 96 8
71 97 1
71 98 2
71 99 2
72 1 1
72 2 7
72 3 1
72 4 4
72 5 3
72 6 2
72 10 7
72 12 7
72 13 2
72 14 1
72 16 6
72 17 3
72 18 1
72 19 4
72 21 9
72 25 2
72 28 8
72 30 1
72 34 1
72 35 1
72 36 5
72 37 8
72 38 1
72 39 6
72 40 2
72 41 1
72 42 7
72 43 1
72 44 5
72 46 1
72 47 3
72 49 2
72 50 4
72 51 2
72 55 1
72 56 1
72 57 6
72 58 1
72 59 2
72 60 9
72 61 1
72 62 1
72 63 2
72 65 3
72 67 5
72 68 1
72 69 5
72 71 3
72 72 8
72 73 6
72 74 1
72 77 1
72 78 1
72 79 4
72 84 7
72 85 3
72 86 1
72 87 7
72 89 2
72 90 1
72 91 1
72 92 3
72 93 9
72 94 8
72 95 3
72 96 1
72 97 2
72 98 1
72 99 2
73 2 1
73 3 5
73 5 1
73 7 1
73 14 1
73 17 1
73 22 1
73 24 4
73 25 1
73 27 1
73 28 2
73 29 1
73 30 2
73 33 7
73 34 1
73 38 7
73 39 1
73 42 2
73 43 1
73 44 1
73 52 9
73 53 2
73 61 2
73 62 7
73 64 1
73 66 12
73 68 5
73 70 2
73 74 7
73 76 5
73 79 1
73 80 2
73 81 5
73 82 8
73 83 1
73 85 2
73 90 3
73 92 3
73 97 1
74 2 1
74 3 5
74 6 1
74 9 2
74 12 1
74 15 1
74 16 2
74 17 1
74 18 1
74 19 2
74 23 1
74 24 8
74 26 1
74 30 3
74 31 1
74 33 4
74 35 2
74 38 6
74 41 2
74 42 1
74 43 1
74 45 1
74 47 3
74 48 2
74 49 1
74 51 3
74 52 4
74 53 1
74 57 2
74 60 1
74 61 2
74 62 5
74 63 1
74 64 1
74 65 1
74 66 6
74 67 1
74 68 6
74 70 1
74 71 1
74 74 11
74 75 1
74 76 3
74 77 1
74 79 2
74 80 1
74 81 10
74 82 7
74 83 3
74 87 2
74 91 1
74 92 1
74 97 2
74 98 1
75 1 1
75 2 7
75 4 8
75 5 4
75 6 5
75 7 1
75 8 1
75 10 3
75 11 1
75 12 4
75 13 1
75 14 1
75 16 7
75 17 6
75 18 1
75 19 10
75 21 13
75 23 1
75 27 1
75 28 6
75 33 1
75 36 7
75 37 3
75 39 7
75 42 6
75 44 11
75 45 1
75 50 9
75 52 3
75 54 1
75 57 11
75 59 7
75 60 7
75 62 2
75 63 5
75 65 6
75 66 1
75 67 9
75 69 5
75 70 2
75 71 9
75 72 9
75 73 7
75 75 1
75 76 1
75 77 1
75 78 1
75 79 4
75 81 1
75 82 2
75 83 2
75 84 11
75 85 9
75 87 7
75 88 1
75 90 2
75 91 1
75 92 5
75 93 4
75 94 6
75 95 4
75 96 2
75 97 1
75 98 1
76 1 1
76 3 1
76 4 1
76 5 1
76 7 3
76 8 5
76 9 4
76 11 3
76 13 1
76 15 12
76 18 5
76 20 1
76 21 1
76 22 6
76 23 4
76 25 1
76 27 1
76 31 1
76 32 5
76 33 1
76 34 1
76 35 6
76 45 3
76 46 1
76 47 1
76 53 1
76 55 1
76 58 5
76 64 1
76 72 1
76 74 2
76 75 2
76 78 7
76 84 1
76 85 1
76 86 1
76 88 3
76 89 2
76 90 1
76 91 1
76 92 2
76 93 1
76 98 1
76 99 1
76 100 1
77 2 2
77 4 9
77 5 9
77 6 2
77 8 1
77 9 4
77 10 3
77 12 10
77 16 6
77 17 5
77 19 9
77 21 6
77 23 1
77 25 1
77 26 1
77 28 6
77 31 1
77 35 2
77 36 7
77 37 3
77 38 1
77 39 8
77 40 1
77 41 1
77 42 2
77 44 8
77 46 1
77 48 1
77 50 5
77 51 1
77 53 1
77 54 1
77 56 1
77 57 9
77 58 1
77 59 5
77 60 6
77 62 1
77 63 5
77 64 2
77 65 10
77 66 2
77 67 9
77 68 1
77 69 3
77 70 1
77 71 5
77 72 13
77 73 6
77 75 1
77 78 1
77 79 9
77 82 1
77 84 11
77 85 5
77 87 10
77 88 1
77 90 7
77 91 1
77 92 6
77 93 10
77 94 9
77 95 12
77 96 7
77 98 1
77 100 1
78 2 4
78 4 5
78 5 12
78 6 6
78 8 1
78 10 8
78 12 8
78 13 2
78 15 1
78 16 6
78 17 9
78 18 1
78 19 5
78 21 8
78 23 1
78 24 3
78 25 1
78 26 1
78 28 11
78 32 2
78 33 2
78 36 5
78 37 4
78 38 2
78 39 8
78 42 5
78 44 5
78 46 1
78 50 7
78 52 1
78 54 2
78 57 12
78 58 1
78 59 12
78 60 8
78 63 7
78 64 2
78 65 9
78 66 1
78 67 8
78 69 5
78 71 11
78 72 8
78 73 9
78 74 1
78 75 1
78 79 10
78 80 2
78 84 3
78 85 6
78 86 1
78 87 2
78 89 1
78 90 9
78 91 2
78 92 5
78 93 7
78 94 12
78 95 8
78 96 9
78 100 1
79 1 1
79 2 1
79 3 7
79 5 1
79 6 1
79 7 1
79 8 1
79 9 1
79 13 2
79 15 2
79 20 2
79 22 1
79 24 5
79 31 2
79 33 3
79 36 1
79 38 4
79 46 1
79 47 1
79 48 1
79 49 1
79 50 3
79 52 4
79 53 2
79 57 3
79 58 2
79 59 1
79 60 2
79 62 10
79 63 1
79 64 1
79 65 2
79 66 3
79 67 1
79 68 5
79 70 1
79 71 1
79 72 1
79 73 1
79 74 3
79 75 1
79 76 6
79 77 2
79 81 4
79 82 4
79 83 1
79 85 1
79 86 1
79 89 3
79 93 3
79 94 1
79 95 2
80 1 1
80 2 6
80 4 6
80 5 7
80 6 6
80 10 6
80 12 4
80 13 1
80 16 6
80 17 9
80 18 1
80 19 8
80 20 1
80 21 8
80 22 1
80 23 1
80 25 1
80 27 2
80 28 8
80 32 2
80 33 2
80 35 1
80 36 4
80 37 12
80 39 7
80 42 6
80 43 1
80 44 5
80 48 1
80 50 8
80 54 1
80 57 5
80 58 1
80 59 3
80 60 8
80 62 1
80 63 4
80 65 7
80 66 1
80 67 6
80 69 8
80 71 3
80 72 4
80 73 4
80 75 1
80 76 1
80 77 1
80 79 2
80 84 4
80 85 6
80 87 4
80 88 1
80 90 6
80 91 1
80 92 10
80 93 2
80 94 6
80 95 9
80 96 7
80 100 1
81 1 3
81 4 1
81 5 2
81 7 5
81 11 6
81 13 9
81 14 3
81 15 3
81 17 1
81 20 2
81 21 1
81 25 5
81 26 8
81 29 8
81 30 9
81 31 4
81 34 3
81 38 3
81 40 4
81 41 7
81 42 1
81 43 6
81 46 14
81 47 9
81 48 5
81 49 6
81 51 5
81 53 10
81 54 2
81 55 3
81 56 6
81 57 1
81 58 1
81 60 1
81 61 4
81 63 2
81 64 4
81 70 2
81 74 1
81 75 4
81 77 8
81 79 1
81 80 9
81 82 2
81 83 2
81 85 1
81 86 7
81 87 1
81 88 5
81 89 6
81 90 2
81 91 7
81 92 1
81 93 2
81 97 12
81 98 5
81 99 9
81 100 7
82 1 1
82 2 1
82 3 10
82 5 1
82 6 1
82 7 1
82 10 1
82 11 1
82 12 1
82 13 3
82 16 1
82 18 2
82 21 1
82 23 1
82 24 8
82 25 2
82 26 1
82 31 1
82 33 5
82 34 2
82 35 1
82 38 7
82 39 1
82 40 2
82 41 1
82 49 2
82 52 12
82 54 1
82 55 1
82 59 1
82 60 1
82 62 8
82 64 1
82 66 5
82 68 11
82 70 1
82 72 2
82 74 12
82 76 10
82 81 6
82 82 14
82 84 1
82 88 1
82 89 1
82 90 1
82 91 1
82 96 2
82 97 1
83 3 2
83 7 1
83 8 1
83 9 1
83 13 1
83 16 2
83 17 2
83 20 1
83 23 1
83 24 6
83 25 3
83 31 1
83 32 3
83 33 4
83 36 2
83 37 2
83 38 9
83 46 1
83 50 1
83 51 2
83 52 13
83 56 2
83 61 1
83 62 5
83 66 5
83 68 8
83 70 1
83 73 1
83 74 7
83 79 2
83 81 4
83 82 3
83 84 2
83 91 2
83 94 1
83 95 1
83 98 1
83 100 1
84 1 1
84 2 2
84 3 8
84 4 1
84 5 1
84 8 2
84 9 1
84 10 1
84 12 1
84 13 2
84 15 1
84 16 1
84 18 1
84 19 1
84 20 1
84 22 1
84 24 3
84 25 1
84 26 1
84 31 3
84 33 9
84 34 2
84 38 8
84 40 3
84 47 1
84 48 1
84 49 4
84 51 1
84 52 4
84 62 14
84 63 1
84 64 1
84 65 2
84 66 5
84 68 5
84 69 1
84 70 2
84 74 8
84 76 4
84 77 2
84 78 2
84 79 2
84 81 12
84 82 12
84 93 1
84 94 1
84 95 1
84 96 1
84 97 1
84 98 2
84 99 1
84 100 4
85 1 1
85 3 1
85 6 2
85 7 1
85 8 7
85 9 3
85 11 1
85 12 1
85 16 2
85 18 7
85 19 1
85 20 1
85 22 9
85 23 4
85 25 1
85 27 6
85 30 1
85 32 4
85 35 4
85 36 1
85 37 1
85 38 1
85 39 3
85 41 1
85 42 1
85 43 1
85 45 7
85 47 1
85 52 1
85 55 1
85 57 3
85 58 4
85 61 1
85 64 1
85 65 1
85 66 1
85 70 1
85 72 1
85 73 1
85 77 3
85 78 3
85 82 1
85 84 1
85 88 2
85 89 2
85 90 3
85 91 1
85 92 3
85 94 1
85 97 1
85 98 1
85 99 1
86 3 8
86 6 2
86 9 1
86 11 1
86 12 1
86 13 1
86 14 1
86 15 1
86 16 1
86 18 2
86 20 1
86 22 1
86 23 1
86 24 2
86 27 1
86 30 1
86 31 1
86 33 10
86 37 1
86 38 7
86 39 1
86 40 1
86 48 1
86 51 1
86 52 5
86 53 1
86 54 3
86 55 1
86 57 1
86 62 7
86 64 1
86 66 5
86 67 1
86 68 6
86 70 2
86 73 1
86 74 10
86 76 8
86 78 2
86 81 13
86 82 2
86 89 1
86 93 2
86 96 1
86 97 2
86 100 3
87 1 2
87 2 9
87 3 1
87 4 4
87 5 6
87 6 5
87 8 2
87 10 5
87 12 4
87 15 2
87 16 4
87 17 3
87 18 1
87 19 6
87 20 2
87 21 11
87 27 1
87 28 10
87 29 3
87 32 4
87 33 1
87 35 1
87 36 12
87 37 3
87 39 9
87 40 1
87 42 8
87 44 8
87 45 1
87 47 1
87 49 1
87 50 2
87 51 1
87 53 1
87 55 1
87 57 7
87 58 1
87 59 5
87 60 11
87 61 2
87 62 1
87 63 5
87 64 1
87 65 7
87 67 7
87 69 8
87 71 5
87 72 10
87 73 6
87 75 1
87 79 10
87 80 2
87 82 1
87 84 1
87 85 4
87 86 1
87 87 6
87 90 4
87 92 6
87 93 3
87 94 5
87 95 2
87 96 8
87 98 2
87 99 1
88 1 6
88 3 2
88 4 3
88 6 1
88 7 5
88 9 2
88 10 2
88 11 8
88 12 2
88 13 8
88 14 3
88 15 1
88 17 2
88 18 1
88 20 7
88 25 3
88 26 7
88 29 6
88 30 5
88 31 7
88 32 1
88 34 2
88 38 1
88 40 9
88 41 4
88 43 4
88 45 1
88 46 11
88 47 2
88 48 3
88 49 5
88 51 2
88 53 8
88 54 5
88 55 1
88 56 9
88 61 8
88 64 4
88 65 1
88 67 1
88 68 2
88 70 3
88 72 1
88 75 10
88 76 1
88 77 5
88 80 7
88 82 1
88 83 5
88 86 7
88 88 2
88 89 5
88 90 1
88 91 10
88 94 1
88 97 4
88 98 3
88 99 3
88 100 8
89 1 1
89 2 5
89 4 1
89 5 9
89 6 5
89 10 4
89 11 2
89 12 3
89 13 1
89 16 10
89 17 8
89 18 2
89 19 5
89 20 1
89 21 8
89 28 4
89 31 1
89 33 1
89 36 6
89 37 7
89 38 1
89 39 2
89 42 5
89 44 6
89 45 2
89 47 1
89 48 1
89 49 1
89 50 3
89 55 1
89 56 1
89 57 7
89 59 8
89 60 3
89 63 4
89 64 1
89 65 6
89 66 1
89 67 5
89 68 1
89 69 6
89 70 1
89 71 7
89 72 7
89 73 5
89 75 1
89 77 1
89 78 2
89 79 4
89 81 2
89 82 3
89 83 1
89 84 3
89 85 6
89 87 6
89 90 8
89 92 8
89 93 5
89 94 6
89 95 5
89 96 5
89 100 1
90 1 1
90 2 4
90 3 1
90 4 7
90 5 2
90 6 9
90 8 1
90 9 1
90 10 8
90 11 1
90 12 6
90 14 2
90 16 4
90 17 4
90 18 2
90 19 8
90 21 4
90 22 1
90 24 1
90 25 1
90 27 2
90 28 9
90 29 3
90 31 1
90 32 1
90 36 5
90 37 4
90 38 2
90 39 8
90 41 1
90 42 7
90 44 7
90 50 6
90 52 1
90 56 2
90 57 6
90 58 1
90 59 5
90 60 8
90 61 2
90 63 8
90 64 1
90 65 6
90 67 7
90 69 3
90 70 1
90 71 7
90 72 7
90 73 4
90 74 1
90 76 2
90 77 2
90 78 1
90 79 4
90 80 1
90 81 1
90 82 2
90 84 4
90 85 5
90 87 2
90 90 9
90 92 2
90 93 3
90 94 3
90 95 6
90 96 6
90 98 1
90 99 1
90 100 2
91 1 2
91 3 12
91 8 1
91 9 2
91 14 2
91 24 10
91 25 1
91 29 1
91 33 6
91 35 1
91 36 1
91 38 8
91 40 1
91 44 1
91 46 1
91 52 10
91 54 1
91 56 2
91 58 2
91 59 3
91 61 1
91 62 7
91 63 2
91 66 1
91 68 2
91 74 7
91 76 5
91 78 1
91 81 6
91 82 7
91 84 4
91 88 3
91 90 1
91 91 1
91 92 1
91 94 1
91 95 1
91 96 1
91 97 1
91 98 1
91 99 1
92 1 1
92 2 10
92 4 17
92 5 9
92 6 9
92 10 7
92 12 6
92 13 1
92 16 7
92 17 9
92 19 10
92 20 1
92 21 6
92 24 2
92 25 1
92 26 4
92 28 7
92 29 1
92 31 2
92 33 2
92 36 6
92 37 6
92 39 8
92 42 5
92 44 5
92 45 1
92 50 8
92 55 1
92 57 6
92 58 2
92 59 8
92 60 2
92 61 1
92 63 6
92 65 6
92 66 1
92 67 6
92 68 1
92 69 8
92 70 1
92 71 6
92 72 5
92 73 4
92 78 1
92 79 8
92 81 2
92 82 1
92 83 1
92 84 5
92 85 6
92 86 2
92 87 6
92 88 1
92 90 8
92 92 7
92 93 4
92 94 7
92 95 5
92 96 3
93 1 4
93 4 1
93 5 1
93 7 2
93 8 1
93 10 2
93 11 5
93 12 2
93 13 4
93 14 9
93 15 2
93 16 1
93 19 2
93 20 6
93 22 1
93 24 1
93 25 6
93 26 6
93 28 1
93 29 6
93 30 7
93 31 8
93 34 10
93 36 1
93 37 1
93 38 2
93 39 1
93 40 9
93 41 4
93 42 1
93 43 10
93 46 13
93 47 10
93 48 5
93 49 9
93 51 6
93 53 1
93 54 7
93 55 9
93 56 5
93 58 1
93 59 4
93 60 1
93 61 8
93 62 1
93 63 2
93 64 8
93 70 11
93 72 2
93 75 5
93 77 5
93 79 1
93 80 12
93 83 9
93 86 8
93 88 2
93 89 8
93 90 1
93 91 9
93 92 1
93 93 1
93 97 7
93 98 3
93 99 5
93 100 3
94 1 1
94 2 4
94 3 1
94 4 3
94 5 7
94 6 4
94 8 3
94 10 1
94 12 3
94 13 1
94 16 3
94 17 2
94 18 1
94 19 6
94 21 8
94 23 1
94 27 1
94 28 6
94 33 1
94 34 1
94 35 3
94 36 5
94 37 7
94 39 3
94 42 4
94 43 2
94 44 5
94 45 3
94 46 1
94 48 1
94 50 4
94 51 3
94 52 3
94 55 2
94 57 8
94 59 2
94 60 8
94 61 1
94 62 1
94 63 7
94 64 1
94 65 6
94 67 8
94 68 1
94 69 11
94 70 1
94 71 12
94 72 6
94 73 8
94 75 1
94 76 1
94 77 1
94 79 3
94 80 1
94 83 1
94 84 5
94 85 3
94 87 6
94 90 4
94 92 1
94 93 8
94 94 8
94 95 7
94 96 4
94 100 1
95 1 1
95 2 3
95 3 2
95 4 3
95 5 3
95 6 4
95 10 6
95 12 12
95 14 1
95 15 1
95 16 9
95 17 11
95 18 1
95 19 5
95 20 3
95 21 5
95 22 2
95 23 1
95 28 5
95 29 1
95 30 2
95 32 1
95 36 3
95 37 5
95 39 6
95 40 1
95 42 5
95 44 10
95 50 9
95 57 8
95 58 1
95 59 5
95 60 4
95 62 1
95 63 8
95 65 6
95 67 10
95 69 3
95 71 5
95 72 6
95 73 3
95 74 2
95 76 1
95 79 6
95 83 2
95 84 5
95 85 4
95 87 7
95 88 1
95 89 2
95 90 6
95 92 4
95 93 3
95 94 4
95 95 6
95 96 5
95 99 1
96 1 1
96 2 7
96 3 1
96 4 1
96 5 6
96 6 4
96 10 6
96 11 1
96 12 7
96 13 1
96 15 1
96 16 6
96 17 7
96 19 5
96 20 1
96 21 10
96 23 2
96 24 1
96 26 2
96 28 3
96 30 1
96 31 1
96 36 7
96 37 5
96 39 5
96 41 1
96 42 4
96 43 2
96 44 7
96 50 3
96 53 1
96 55 1
96 56 2
96 57 8
96 59 9
96 60 8
96 62 1
96 63 5
96 64 1
96 65 9
96 67 7
96 68 1
96 69 4
96 71 4
96 72 5
96 73 7
96 74 1
96 76 1
96 77 1
96 79 5
96 82 1
96 83 1
96 84 3
96 85 5
96 87 3
96 88 1
96 89 1
96 90 4
96 92 6
96 93 5
96 94 10
96 95 8
96 96 1
96 97 1
96 99 1
97 1 3
97 6 1
97 7 5
97 11 8
97 13 5
97 14 6
97 15 1
97 16 1
97 17 2
97 20 9
97 26 1
97 28 1
97 29 10
97 30 1
97 31 1
97 33 1
97 34 3
97 38 1
97 39 1
97 40 1
97 41 3
97 43 2
97 44 1
97 46 4
97 47 4
97 48 5
97 49 8
97 51 6
97 53 9
97 54 5
97 55 6
97 56 3
97 58 1
97 61 7
97 62 2
97 63 1
97 64 4
97 65 1
97 67 2
97 70 5
97 72 1
97 74 2
97 75 10
97 76 1
97 77 6
97 80 3
97 83 7
97 86 5
97 88 5
97 89 5
97 91 5
97 92 2
97 96 2
97 97 6
97 98 3
97 99 2
97 100 6
98 2 9
98 4 2
98 5 8
98 6 7
98 7 3
98 8 2
98 10 5
98 11 1
98 12 4
98 13 1
98 15 1
98 16 5
98 17 8
98 19 7
98 20 3
98 21 5
98 24 1
98 28 3
98 29 1
98 30 1
98 31 1
98 36 6
98 37 3
98 39 4
98 42 7
98 44 1
98 47 1
98 50 3
98 51 1
98 53 1
98 55 1
98 57 4
98 59 6
98 60 9
98 62 1
98 63 8
98 65 9
98 67 4
98 69 11
98 70 5
98 71 5
98 72 5
98 73 3
98 75 1
98 76 1
98 79 12
98 81 1
98 84 7
98 85 8
98 87 9
98 89 1
98 90 8
98 92 12
98 93 5
98 94 6
98 95 8
98 96 13
98 98 2
98 100 1
99 1 3
99 3 1
99 4 1
99 6 5
99 7 3
99 8 2
99 11 5
99 12 2
99 13 12
99 14 6
99 16 1
99 19 1
99 20 12
99 25 13
99 26 6
99 29 5
99 30 7
99 31 3
99 33 1
99 34 8
99 36 1
99 38 1
99 39 1
99 40 3
99 41 1
99 43 7
99 46 6
99 47 11
99 48 10
99 49 4
99 51 7
99 52 1
99 53 11
99 54 7
99 55 7
99 56 2
99 58 1
99 59 1
99 60 1
99 61 3
99 62 1
99 64 8
99 65 1
99 68 3
99 69 1
99 70 2
99 71 1
99 74 1
99 75 11
99 76 1
99 77 5
99 78 2
99 79 1
99 80 7
99 81 1
99 82 1
99 83 4
99 86 3
99 88 10
99 89 3
99 91 5
99 93 1
99 97 7
99 98 5
99 99 9
99 100 4
100 2 1
100 3 7
100 8 1
100 10 1
100 12 1
100 19 1
100 24 14
100 29 1
100 31 1
100 33 11
100 34 3
100 35 2
100 38 3
100 40 1
100 41 1
100 44 1
100 47 1
100 48 1
100 52 5
100 58 1
100 62 5
100 63 1
100 66 6
100 68 7
100 70 1
100 72 1
100 74 9
100 76 6
100 81 10
100 82 4
100 83 1
100 90 1
100 94 1
100 95 1
100 96 2
100 97 1
100 98 1
101 2 6
101 4 9
101 5 5
101 6 7
101 7 3
101 8 1
101 10 3
101 12 8
101 13 2
101 14 1
101 16 8
101 17 2
101 18 1
101 19 11
101 21 3
101 23 1
101 25 4
101 27 2
101 28 3
101 29 1
101 30 1
101 31 1
101 33 1
101 35 1
101 36 6
101 37 4
101 39 9
101 40 1
101 41 1
101 42 7
101 43 1
101 44 7
101 47 2
101 48 1
101 50 11
101 51 1
101 54 1
101 55 2
101 57 6
101 58 1
101 59 8
101 60 6
101 61 2
101 62 2
101 63 4
101 64 1
101 65 5
101 66 1
101 67 8
101 69 4
101 71 9
101 72 7
101 73 7
101 75 1
101 76 1
101 77 1
101 79 3
101 81 1
101 84 9
101 85 6
101 87 7
101 90 4
101 91 1
101 92 8
101 93 2
101 94 12
101 95 11
101 96 5
101 98 1
102 1 1
102 2 4
102 3 1
102 4 5
102 5 1
102 6 6
102 7 1
102 8 1
102 10 11
102 12 8
102 14 1
102 15 2
102 16 8
102 17 5
102 18 2
102 19 3
102 20 2
102 21 6
102 22 1
102 27 2
102 28 2
102 29 1
102 34 1
102 36 4
102 37 4
102 39 10
102 41 1
102 42 8
102 44 7
102 45 1
102 46 1
102 47 1
102 50 11
102 51 2
102 55 1
102 56 1
102 57 4
102 59 7
102 60 5
102 61 2
102 62 3
102 63 12
102 65 6
102 67 5
102 69 5
102 71 7
102 72 5
102 73 2
102 75 2
102 78 2
102 79 6
102 81 1
102 84 5
102 85 6
102 87 3
102 90 9
102 92 3
102 93 7
102 94 6
102 95 7
102 96 7
102 97 2
102 98 1
102 99 1
103 1 2
103 2 1
103 3 2
103 4 1
103 5 1
103 7 3
103 13 1
103 14 2
103 15 1
103 16 1
103 19 4
103 22 2
103 23 1
103 24 4
103 27 1
103 30 1
103 33 3
103 34 2
103 36 1
103 38 5
103 39 1
103 40 3
103 42 1
103 44 1
103 46 1
103 47 3
103 48 2
103 49 1
103 52 4
103 53 1
103 57 2
103 58 1
103 61 1
103 62 9
103 65 1
103 66 9
103 67 1
103 68 4
103 71 2
103 72 2
103 74 5
103 76 6
103 77 1
103 78 1
103 80 1
103 81 7
103 82 4
103 84 1
103 86 1
103 87 1
103 88 1
103 91 1
103 96 2
103 97 1
103 98 2
104 2 2
104 4 4
104 5 6
104 6 6
104 7 2
104 8 1
104 10 1
104 12 4
104 13 3
104 16 5
104 17 5
104 19 4
104 20 2
104 21 3
104 22 1
104 24 4
104 27 1
104 28 6
104 29 1
104 32 1
104 34 1
104 36 7
104 37 6
104 38 1
104 39 6
104 41 2
104 42 8
104 44 2
104 47 1
104 50 6
104 54 2
104 57 13
104 58 1
104 59 5
104 60 7
104 62 2
104 63 5
104 64 1
104 65 2
104 67 5
104 68 3
104 69 8
104 70 1
104 71 6
104 72 8
104 73 6
104 75 2
104 76 2
104 77 1
104 78 2
104 79 6
104 80 2
104 82 2
104 83 1
104 84 1
104 85 4
104 87 5
104 88 1
104 90 4
104 92 3
104 93 2
104 94 3
104 95 2
104 96 2
104 97 1
105 3 4
105 4 1
105 6 2
105 7 1
105 10 1
105 12 2
105 16 1
105 22 1
105 24 9
105 27 2
105 33 4
105 34 1
105 35 2
105 38 3
105 42 1
105 43 1
105 44 2
105 45 1
105 50 1
105 51 3
105 52 7
105 58 2
105 62 4
105 63 1
105 64 1
105 66 6
105 67 3
105 68 8
105 71 1
105 72 1
105 73 1
105 74 7
105 75 2
105 76 10
105 77 1
105 80 2
105 81 9
105 82 3
105 86 1
105 90 1
105 97 3
105 99 2
105 100 1
106 5 1
106 7 2
106 8 7
106 9 4
106 12 1
106 14 1
106 15 2
106 16 1
106 18 7
106 20 2
106 22 6
106 23 9
106 24 1
106 27 4
106 28 1
106 29 1
106 32 9
106 34 1
106 35 4
106 36 1
106 38 1
106 40 2
106 45 7
106 49 1
106 53 2
106 54 1
106 56 1
106 57 1
106 58 5
106 60 2
106 66 1
106 72 1
106 73 2
106 75 1
106 76 2
106 78 2
106 81 1
106 82 1
106 85 1
106 87 1
106 88 1
106 91 1
106 92 1
106 94 1
106 97 1
106 98 1
106 99 1
107 1 2
107 2 2
107 4 1
107 5 1
107 8 7
107 9 4
107 13 1
107 15 7
107 16 2
107 18 8
107 21 1
107 22 4
107 23 3
107 24 4
107 25 1
107 27 11
107 28 1
107 30 2
107 32 8
107 33 1
107 35 3
107 36 2
107 37 2
107 40 1
107 41 1
107 43 1
107 44 1
107 45 3
107 46 1
107 48 3
107 49 1
107 55 1
107 58 5
107 63 1
107 64 2
107 65 2
107 66 1
107 69 1
107 74 1
107 78 3
107 81 3
107 87 2
107 89 1
107 90 1
107 92 1
107 98 1
107 100 2
108 1 9
108 2 1
108 3 1
108 7 5
108 8 3
108 11 3
108 13 6
108 14 7
108 15 1
108 16 2
108 20 4
108 22 2
108 25 9
108 26 3
108 29 7
108 30 7
108 31 6
108 34 5
108 36 1
108 37 1
108 40 1
108 41 6
108 43 10
108 44 1
108 46 7
108 47 4
108 48 7
108 49 8
108 50 1
108 51 3
108 52 1
108 53 5
108 54 6
108 55 8
108 56 4
108 58 3
108 60 1
108 61 5
108 64 6
108 65 1
108 66 1
108 68 1
108 70 2
108 72 1
108 73 1
108 75 4
108 76 1
108 77 5
108 79 2
108 80 4
108 81 1
108 82 1
108 83 5
108 84 1
108 86 6
108 88 5
108 89 1
108 90 1
108 91 9
108 92 2
108 94 2
108 95 1
108 97 4
108 98 8
108 99 7
108 100 6
109 2 1
109 3 7
109 5 2
109 6 1
109 8 2
109 9 1
109 10 3
109 12 1
109 13 1
109 14 1
109 15 1
109 17 1
109 20 1
109 22 1
109 24 7
109 25 3
109 26 1
109 32 1
109 33 6
109 35 1
109 38 4
109 41 3
109 44 1
109 45 1
109 48 1
109 52 9
109 53 1
109 54 1
109 55 2
109 56 2
109 61 1
109 62 8
109 64 1
109 66 7
109 67 1
109 68 3
109 70 1
109 74 4
109 76 6
109 78 1
109 80 1
109 81 3
109 82 4
109 84 1
109 85 1
109 88 1
109 89 1
109 95 4
109 97 1
109 98 3
109 99 1
110 1 1
110 3 5
110 4 1
110 7 1
110 8 1
110 9 1
110 14 1
110 15 2
110 17 2
110 20 2
110 22 1
110 23 1
110 24 1
110 25 1
110 26 2
110 28 1
110 29 1
110 30 2
110 31 1
110 32 2
110 33 6
110 37 1
110 38 4
110 43 1
110 44 1
110 45 1
110 52 2
110 53 1
110 57 1
110 59 2
110 61 2
110 62 3
110 63 1
110 66 2
110 67 3
110 68 3
110 72 3
110 73 1
110 74 6
110 75 1
110 76 5
110 78 1
110 79 1
110 81 6
110 82 5
110 83 3
110 87 1
110 98 2
110 99 1
111 3 3
111 5 2
111 6 1
111 8 1
111 11 1
111 16 1
111 19 1
111 20 1
111 21 1
111 22 2
111 23 1
111 24 3
111 25 2
111 27 4
111 31 1
111 33 6
111 34 2
111 37 2
111 38 4
111 39 1
111 41 1
111 45 3
111 48 1
111 49 1
111 51 3
111 52 6
111 53 2
111 54 2
111 56 1
111 57 1
111 59 1
111 60 1
111 61 1
111 62 5
111 66 5
111 67 2
111 68 6
111 69 1
111 72 1
111 73 1
111 74 4
111 76 5
111 79 3
111 81 6
111 82 3
111 84 1
111 85 1
111 87 1
111 93 1
111 97 2
111 98 2
111 99 1
111 100 1
112 1 1
112 2 2
112 3 2
112 4 7
112 5 6
112 6 4
112 10 7
112 11 2
112 12 4
112 16 9
112 17 6
112 18 1
112 19 7
112 20 1
112 21 6
112 23 2
112 25 2
112 27 1
112 28 1
112 29 3
112 35 2
112 36 5
112 37 9
112 39 4
112 40 2
112 42 2
112 44 7
112 48 2
112 49 2
112 50 9
112 51 2
112 57 7
112 58 1
112 59 7
112 60 8
112 61 1
112 63 2
112 64 2
112 65 7
112 67 2
112 69 4
112 70 3
112 71 5
112 72 8
112 73 3
112 74 1
112 75 1
112 78 1
112 79 12
112 80 1
112 82 1
112 83 2
112 84 4
112 85 3
112 86 1
112 87 6
112 89 1
112 90 5
112 92 1
112 93 10
112 94 6
112 95 8
112 96 5
112 100 2
113 2 6
113 4 3
113 5 3
113 6 10
113 7 2
113 10 7
113 11 1
113 12 5
113 14 2
113 16 7
113 17 6
113 18 3
113 19 3
113 20 1
113 21 9
113 22 1
113 26 1
113 28 3
113 30 1
113 35 1
113 36 6
113 37 10
113 39 5
113 42 2
113 43 2
113 44 8
113 45 1
113 48 2
113 50 1
113 51 2
113 53 5
113 57 5
113 58 1
113 59 5
113 60 13
113 62 1
113 63 4
113 65 4
113 67 6
113 68 1
113 69 5
113 71 5
113 72 4
113 73 10
113 79 4
113 80 1
113 81 1
113 84 6
113 85 7
113 87 7
113 88 1
113 90 9
113 92 7
113 93 5
113 94 7
113 95 4
113 96 11
113 97 2
114 1 1
114 2 6
114 3 4
114 4 7
114 5 3
114 6 6
114 8 1
114 9 1
114 10 4
114 12 6
114 14 1
114 15 1
114 16 12
114 17 5
114 19 2
114 21 10
114 28 8
114 31 1
114 33 1
114 36 4
114 37 5
114 39 9
114 42 4
114 43 1
114 44 7
114 46 2
114 48 2
114 49 1
114 50 4
114 54 1
114 56 1
114 57 5
114 59 4
114 60 7
114 63 9
114 65 5
114 66 1
114 67 6
114 68 2
114 69 2
114 71 2
114 72 6
114 73 5
114 76 1
114 79 8
114 80 1
114 81 1
114 83 2
114 84 7
114 85 5
114 87 6
114 89 2
114 90 8
114 92 2
114 93 6
114 94 7
114 95 12
114 96 8
114 98 2
114 99 4
115 2 2
115 3 1
115 4 3
115 5 2
115 6 4
115 7 2
115 10 3
115 12 5
115 13 3
115 16 5
115 17 7
115 19 5
115 21 11
115 27 1
115 28 10
115 30 1
115 33 1
115 36 6
115 37 8
115 39 9
115 42 5
115 44 9
115 45 1
115 48 1
115 50 5
115 52 1
115 53 1
115 56 3
115 57 5
115 59 11
115 60 2
115 63 3
115 65 7
115 66 1
115 67 5
115 69 4
115 70 1
115 71 7
115 72 6
115 73 4
115 77 1
115 79 6
115 84 1
115 85 8
115 86 1
115 87 10
115 89 1
115 90 4
115 92 6
115 93 5
115 94 8
115 95 10
115 96 5
115 99 1
115 100 2
116 2 1
116 4 2
116 5 5
116 6 6
116 10 7
116 11 1
116 12 11
116 14 1
116 15 1
116 16 7
116 17 5
116 19 7
116 21 6
116 22 3
116 24 3
116 28 7
116 31 4
116 32 2
116 33 1
116 36 8
116 37 1
116 38 1
116 39 7
116 40 2
116 41 1
116 42 1
116 43 1
116 44 3
116 45 1
116 48 1
116 50 6
116 51 2
116 52 1
116 55 1
116 56 1
116 57 6
116 58 1
116 59 7
116 60 6
116 61 3
116 63 7
116 65 4
116 66 1
116 67 7
116 69 7
116 71 6
116 72 9
116 73 6
116 74 1
116 77 4
116 79 5
116 81 1
116 84 4
116 85 9
116 86 1
116 87 6
116 90 5
116 92 5
116 93 8
116 94 7
116 95 7
116 96 8
116 100 2
117 1 4
117 7 6
117 10 1
117 11 4
117 13 7
117 14 3
117 15 1
117 20 1
117 22 1
117 26 4
117 27 2
117 29 6
117 30 6
117 31 6
117 32 1
117 34 5
117 40 5
117 41 5
117 43 4
117 44 1
117 45 1
117 46 4
117 47 8
117 48 6
117 49 4
117 51 6
117 53 4
117 54 12
117 55 5
117 56 4
117 61 7
117 63 3
117 64 3
117 65 2
117 67 1
117 68 1
117 70 3
117 72 2
117 73 1
117 75 8
117 77 2
117 79 2
117 80 9
117 83 6
117 84 2
117 85 1
117 86 5
117 88 9
117 89 6
117 90 1
117 91 2
117 95 1
117 97 5
117 98 9
117 99 2
117 100 8
118 1 7
118 7 10
118 8 2
118 11 5
118 13 6
118 14 3
118 18 1
118 20 6
118 21 2
118 25 4
118 26 7
118 28 2
118 29 2
118 30 3
118 31 3
118 33 2
118 34 6
118 37 1
118 39 1
118 40 1
118 41 6
118 42 2
118 43 4
118 45 1
118 46 5
118 47 6
118 48 5
118 50 1
118 51 3
118 53 5
118 54 5
118 55 6
118 56 3
118 59 1
118 61 2
118 64 5
118 66 1
118 68 2
118 70 6
118 73 1
118 75 3
118 76 2
118 77 7
118 79 2
118 80 7
118 81 1
118 82 1
118 83 6
118 84 1
118 86 6
118 87 1
118 88 8
118 89 7
118 90 1
118 91 11
118 97 5
118 98 10
118 99 8
118 100 4
119 1 1
119 2 4
119 3 1
119 4 6
119 5 5
119 6 6
119 10 4
119 12 4
119 13 1
119 15 1
119 16 3
119 17 7
119 18 1
119 19 6
119 20 2
119 21 1
119 22 1
119 24 1
119 25 1
119 26 6
119 28 6
119 29 1
119 31 1
119 33 1
119 34 2
119 35 2
119 36 8
119 37 3
119 38 2
119 39 7
119 40 1
119 42 6
119 44 7
119 47 2
119 49 2
119 50 7
119 52 1
119 54 2
119 55 1
119 57 4
119 58 1
119 59 7
119 60 5
119 63 7
119 65 2
119 66 2
119 67 7
119 69 7
119 71 6
119 72 3
119 73 9
119 75 1
119 77 1
119 79 2
119 81 1
119 82 1
119 84 9
119 85 5
119 87 6
119 89 1
119 90 3
119 91 2
119 92 2
119 93 11
119 94 7
119 95 9
119 96 5
119 98 1
120 1 5
120 2 1
120 3 1
120 4 1
120 5 1
120 7 6
120 8 1
120 11 4
120 12 2
120 13 11
120 14 8
120 16 1
120 17 1
120 18 1
120 20 5
120 23 1
120 25 5
120 26 3
120 27 1
120 29 6
120 30 4
120 31 11
120 32 1
120 34 1
120 35 1
120 36 2
120 40 4
120 41 6
120 42 1
120 43 5
120 44 2
120 46 7
120 47 7
120 48 3
120 49 4
120 50 1
120 51 7
120 53 6
120 54 6
120 55 7
120 56 5
120 58 1
120 60 3
120 61 5
120 62 1
120 64 8
120 65 1
120 66 2
120 67 1
120 68 2
120 69 1
120 70 5
120 73 1
120 75 2
120 77 4
120 79 1
120 80 3
120 82 1
120 83 3
120 84 1
120 85 2
120 86 4
120 87 1
120 88 6
120 89 6
120 91 8
120 94 1
120 95 1
120 96 1
120 97 5
120 98 6
120 99 7
120 100 3
121 1 1
121 2 7
121 4 6
121 5 8
121 6 4
121 9 1
121 10 6
121 12 3
121 14 1
121 15 2
121 16 10
121 17 8
121 19 7
121 20 2
121 21 9
121 23 3
121 27 2
121 28 5
121 29 1
121 34 1
121 36 9
121 37 8
121 39 5
121 40 1
121 41 1
121 42 1
121 44 6
121 50 8
121 51 1
121 52 1
121 54 3
121 56 1
121 57 3
121 59 8
121 60 8
121 61 2
121 62 1
121 63 5
121 65 4
121 66 1
121 67 6
121 68 1
121 69 4
121 71 1
121 72 5
121 73 9
121 74 1
121 75 2
121 76 2
121 77 1
121 78 5
121 79 4
121 84 2
121 85 5
121 87 7
121 90 3
121 92 4
121 93 5
121 94 12
121 95 8
121 96 7
121 97 1
121 98 1
122 2 1
122 3 5
122 4 2
122 5 1
122 6 1
122 7 2
122 8 3
122 15 2
122 17 1
122 21 3
122 24 10
122 27 2
122 29 1
122 32 2
122 33 6
122 35 1
122 36 1
122 38 9
122 39 1
122 41 3
122 47 1
122 49 2
122 51 2
122 52 6
122 53 1
122 61 2
122 62 7
122 66 6
122 67 1
122 68 6
122 69 1
122 70 1
122 71 1
122 72 1
122 73 1
122 74 1
122 76 5
122 77 1
122 78 2
122 79 2
122 81 3
122 82 11
122 84 1
122 85 2
122 87 2
122 88 1
122 91 1
122 94 1
122 96 1
122 97 2
122 99 1
123 1 2
123 2 4
123 3 6
123 4 1
123 5 1
123 7 1
123 8 1
123 9 1
123 11 1
123 12 1
123 14 1
123 15 3
123 20 1
123 21 1
123 22 3
123 24 4
123 26 1
123 28 2
123 29 2
123 30 1
123 31 1
123 33 3
123 36 1
123 37 1
123 38 9
123 39 2
123 41 2
123 45 2
123 47 2
123 49 1
123 52 5
123 57 2
123 62 9
123 66 6
123 67 2
123 68 6
123 69 1
123 70 2
123 73 2
123 74 4
123 75 1
123 76 6
123 79 1
123 81 7
123 82 6
123 90 1
123 95 1
123 97 2
123 98 1
123 99 1
124 1 1
124 2 1
124 3 6
124 4 1
124 5 2
124 6 1
124 9 1
124 10 1
124 17 1
124 22 1
124 23 1
124 24 5
124 27 1
124 30 1
124 33 6
124 34 3
124 35 1
124 36 1
124 38 8
124 44 1
124 50 1
124 52 4
124 56 1
124 57 1
124 59 2
124 61 1
124 62 11
124 64 2
124 66 1
124 68 2
124 69 2
124 72 1
124 74 5
124 76 3
124 79 1
124 80 1
124 81 3
124 82 4
124 84 1
124 86 1
124 87 1
124 90 2
124 91 2
124 93 1
124 94 1
124 96 1
124 99 2
125 18 1
125 28 1
125 39 2
125 43 1
125 67 1
125 89 1
126 5 1
126 9 1
126 24 1
126 57 1
126 76 1
126 96 1
127 9 1
127 20 1
127 50 1
127 56 1
127 76 1
128 12 1
128 18 1
128 39 1
128 42 1
128 45 1
128 79 1
128 90 1
128 94 1
129 5 1
129 22 1
129 33 1
129 45 1
129 48 1
129 60 1
129 71 1
129 83 1
129 100 1
130 2 1
130 3 1
130 4 1
130 6 1
130 9 1
130 21 1
130 46 1
130 54 1
130 63 1
130 67 1
130 69 2
130 83 1
130 98 1
131 4 1
131 7 1
131 37 1
131 39 1
131 41 1
131 52 1
131 57 1
131 62 1
132 24 1
132 35 1
132 46 1
132 63 1
132 69 1
132 75 1
132 83 1
132 99 1
133 27 1
133 41 1
133 42 1
133 52 1
133 65 1
133 76 1
133 78 1
133 90 1
133 96 1
133 97 1
134 13 1
134 19 1
134 23 1
134 25 1
134 39 1
134 58 1
134 65 1
134 86 1
134 89 1
134 96 1
135 25 1
135 51 1
135 52 1
135 64 1
136 2 1
136 9 1
136 13 1
136 15 1
136 20 1
136 44 1
136 53 1
136 54 1
136 75 1
136 76 1
136 88 2
136 91 2
136 100 1
137 11 1
137 13 1
137 26 1
137 35 1
137 38 1
137 41 1
137 46 1
137 53 1
137 71 1
137 83 1
137 84 1
138 25 1
138 34 1
138 44 1
138 78 1
138 82 1
138 95 1
139 22 1
139 26 1
139 30 1
139 52 1
139 56 1
139 64 1
139 67 1
139 90 1
139 100 1
140 8 1
140 9 1
140 50 1
140 56 1
140 71 1
140 80 1
140 90 1
140 92 1
141 16 1
141 24 1
141 59 1
141 63 1
141 73 1
142 32 1
142 50 2
142 91 1
142 98 1
143 7 1
143 23 1
143 40 1
143 80 1
143 83 1
143 91 1
143 96 1
144 21 1
144 42 1
144 51 1
144 56 1
144 59 2
144 62 2
144 64 1
144 69 1
144 80 1
144 86 1
144 87 1
144 91 1
145 18 1
145 41 1
145 43 1
145 59 1
145 60 1
145 63 1
145 70 1
145 99 1
146 11 1
146 24 1
146 27 1
146 29 1
146 51 1
146 68 1
146 99 1
147 5 1
147 13 1
147 35 1
147 45 1
147 63 1
147 80 1
147 91 1
147 95 1
148 2 2
148 18 1
148 20 1
148 24 1
148 38 1
148 46 1
148 80 1
148 82 1
148 91 1
149 17 1
149 63 1
149 94 1
149 97 2
149 100 1
150 15 1
150 46 1
150 56 1
150 63 1
150 70 1
150 77 1
150 98 1
151 26 1
151 39 1
151 40 1
151 49 1
151 53 1
151 56 1
151 75 1
151 90 1
152 5 1
152 8 1
152 9 1
152 28 1
152 29 1
152 48 1
152 59 1
152 65 1
152 69 1
152 82 1
153 2 1
153 3 1
153 27 1
153 29 1
153 39 1
153 59 1
153 73 1
154 12 1
154 34 1
154 36 1
154 69 1
154 71 1
154 76 1
154 80 1
154 88 1
155 4 1
155 5 1
155 21 1
155 28 1
155 57 1
155 63 1
155 70 1
155 71 1
155 85 1
156 17 1
156 40 1
156 50 1
156 58 1
156 68 1
156 71 1
156 75 1
156 84 1
156 88 1
157 15 1
157 34 1
157 57 1
157 80 1
157 87 1
157 95 1
158 8 1
158 36 1
158 43 1
158 92 1
158 96 2
159 9 2
159 19 1
159 42 1
159 60 1
160 19 1
160 21 1
160 37 1
160 46 1
160 56 1
160 92 1
161 3 1
161 4 1
161 24 1
161 37 2
161 50 1
161 56 1
161 84 2
161 93 1
162 6 1
162 58 1
162 64 1
162 76 1
162 83 1
162 87 1
162 95 1
163 1 1
163 63 1
163 75 2
163 83 1
163 100 1
164 12 1
164 27 1
164 33 1
164 39 1
164 52 2
164 61 1
164 88 1
165 3 1
165 10 1
165 36 2
165 43 1
165 75 1
165 83 1
166 1 2
166 8 1
166 21 2
166 60 1
166 87 2
166 100 1
167 1 1
167 8 1
167 16 1
167 18 1
167 19 1
167 20 1
167 32 2
167 64 1
167 77 1
167 83 1
167 89 1
167 93 1
168 1 1
168 9 1
168 11 1
168 14 1
168 21 1
168 29 1
168 39 1
168 55 1
168 56 1
168 58 1
168 65 1
168 66 1
168 70 1
168 78 1
168 95 1
169 26 1
169 50 1
169 51 1
169 64 1
169 78 2
169 89 1
169 93 1
170 31 1
170 32 1
170 33 1
170 48 1
171 19 1
171 29 1
171 35 1
171 40 1
171 52 1
171 65 1
171 66 1
171 79 1
172 13 1
172 35 1
172 42 1
172 67 1
172 82 1
173 1 1
173 7 1
173 17 1
173 35 1
173 70 1
173 94 1
173 97 1
173 98 1
173 99 1
173 100 1
174 5 1
174 8 1
174 21 2
174 32 2
174 54 1
174 57 1
174 58 1
174 62 2
174 88 1
174 89 1
174 100 1
175 1 1
175 57 1
175 62 1
175 94 1
175 98 2
175 100 1
176 3 1
176 8 1
176 18 1
176 35 1
176 41 1
176 58 1
176 77 1
177 4 1
177 28 1
177 66 1
177 88 1
177 92 1
177 93 1
178 7 1
178 23 1
178 37 1
178 56 1
178 59 1
178 62 2
178 85 1
179 5 1
179 8 1
179 9 1
179 25 1
179 27 2
179 33 1
179 34 1
179 38 1
179 67 1
179 77 1
179 78 1
179 92 1
179 97 1
180 5 1
180 20 1
180 41 1
180 46 1
180 48 2
180 58 1
180 83 1
180 97 2
181 6 1
181 10 1
181 12 1
181 21 1
181 46 1
181 51 1
181 57 1
181 61 1
181 76 1
181 99 1
182 22 1
182 24 1
182 28 1
182 31 1
182 86 1
182 89 1
183 4 1
183 24 1
183 49 1
183 83 1
184 2 1
184 9 1
184 14 1
184 18 1
184 46 1
184 52 1
184 58 1
184 65 1
184 75 2
184 89 1
185 8 2
185 15 1
185 26 1
185 41 1
185 70 1
185 80 1
186 69 1
186 70 1
186 76 1
187 21 1
187 41 1
187 51 1
187 54 1
187 55 1
187 56 2
187 58 1
187 60 1
187 61 1
187 70 3
187 82 1
187 87 1
188 11 1
188 53 1
188 64 1
188 85 1
188 97 1
189 29 1
189 53 1
189 62 1
189 69 1
190 23 1
190 39 1
190 60 1
190 65 1
190 71 2
190 88 1
191 25 1
191 44 1
191 65 1
191 96 1
192 17 1
192 39 1
192 45 2
192 63 1
192 68 1
192 85 1
192 86 1
192 90 1
192 97 1
193 44 1
193 45 2
193 59 1
193 68 1
193 69 1
193 84 2
193 85 1
193 92 1
193 93 1
193 94 1
193 97 1
194 5 1
194 23 1
194 25 1
194 36 1
194 54 1
194 58 1
194 59 1
194 73 1
194 79 1
194 86 1
195 2 1
195 11 1
195 14 1
195 21 1
195 24 1
195 77 1
195 79 1
195 92 1
195 100 1
196 4 1
196 23 1
196 40 1
196 82 1
197 71 1
197 78 1
197 82 1
197 95 1
198 3 1
198 8 1
198 15 1
198 24 1
198 64 1
198 82 1
198 92 1
199 9 1
199 50 1
199 59 1
199 73 1
199 85 1
199 88 1
200 1 1
200 3 1
200 43 1
200 74 1
200 82 1
201 7 2
201 43 3
201 79 1
202 36 1
202 38 2
202 44 1
202 71 1
202 97 1
202 100 1
203 2 2
203 12 1
203 19 1
203 25 1
203 53 1
203 61 2
203 100 1
204 1 1
204 8 1
204 16 1
204 19 1
204 22 1
204 25 1
204 42 1
204 67 1
204 79 2
204 87 1
205 2 1
205 39 1
205 41 1
205 77 1
205 97 2
205 99 1
206 18 1
206 30 1
206 43 1
206 58 1
206 60 1
206 66 1
206 94 1
207 5 1
207 47 1
207 69 1
207 77 1
207 86 1
207 98 1
208 9 1
208 18 2
208 20 1
208 57 1
209 9 1
209 45 1
209 67 1
210 3 1
210 5 1
210 9 1
210 27 1
210 46 2
210 85 1
210 89 1
210 98 1
211 22 1
211 32 1
211 47 1
211 59 1
211 61 1
211 79 1
211 88 1
211 97 1
212 15 1
212 29 1
212 59 1
212 65 1
212 75 1
212 88 1
212 89 1
212 91 2
212 92 1
213 26 1
213 34 1
213 42 1
213 46 1
213 64 1
213 70 1
214 9 1
214 50 2
214 56 1
214 59 1
214 70 1
214 75 1
214 80 1
214 84 1
214 92 1
215 10 1
215 27 1
215 45 1
215 69 1
215 94 1
216 36 1
216 46 1
217 11 1
217 21 1
217 25 1
217 34 1
217 55 1
217 61 1
217 65 1
217 67 1
217 71 1
217 79 1
217 92 2
217 96 1
218 5 1
218 35 1
218 61 1
218 78 1
218 83 1
218 85 1
218 89 1
219 4 1
219 8 1
219 80 1
219 81 1
219 83 1
219 92 1
220 18 1
220 33 2
220 43 1
220 47 1
220 65 1
220 74 1
220 81 1
220 82 1
220 85 1
221 5 1
221 12 1
221 28 1
221 31 1
221 67 1
221 76 1
222 13 1
222 26 1
222 41 1
222 47 1
222 71 1
222 76 1
222 82 1
222 99 1
223 2 1
223 38 1
223 51 1
223 66 2
223 76 1
223 97 1
224 13 1
224 14 1
224 32 2
224 41 1
224 44 1
224 53 1
224 78 1
224 90 1
224 91 1
224 99 1
225 10 1
225 22 2
225 34 1
225 81 2
225 93 1
225 100 1
226 17 1
226 18 1
226 28 1
226 31 1
226 32 1
226 58 1
226 79 1
226 81 1
226 87 1
227 6 2
227 30 1
227 46 1
227 75 1
228 11 3
228 19 1
228 24 1
228 30 1
228 38 1
228 39 1
228 43 1
228 54 1
228 57 1
228 86 1
228 90 1
228 94 1
229 3 1
229 17 1
229 23 1
229 25 1
229 27 1
229 29 1
229 30 1
229 49 1
229 62 1
229 79 1
230 2 1
230 4 1
230 6 2
230 8 1
230 13 1
230 15 1
230 28 1
230 38 1
230 45 1
231 6 1
231 16 1
231 49 1
231 58 1
231 68 1
231 81 1
231 88 1
232 6 1
232 14 1
232 24 1
232 25 1
232 41 1
232 47 1
232 67 1
233 22 1
233 31 1
233 33 1
233 62 1
233 65 1
233 78 1
233 94 1
234 17 1
234 46 1
234 57 1
234 63 1
234 91 2
234 93 2
235 7 1
235 17 2
235 35 1
235 36 1
235 60 1
235 74 1
235 77 2
235 90 1
235 97 1
235 99 1
236 21 1
236 35 1
236 37 1
236 40 1
236 50 1
236 55 1
236 63 1
236 75 1
236 88 1
236 97 1
237 12 1
237 15 1
237 19 1
237 37 2
237 57 1
237 64 2
237 91 1
238 2 1
238 13 1
238 25 1
238 30 1
238 32 1
238 38 1
238 47 1
238 64 1
238 68 2
238 93 1
239 3 1
239 6 1
239 20 1
239 31 1
239 46 2
239 51 1
239 79 1
240 8 1
240 25 1
240 27 1
240 36 1
240 66 1
240 70 1
240 94 1
241 66 1
241 89 1
241 94 1
241 96 1
242 3 1
242 26 1
242 41 1
242 44 1
242 76 1
242 81 1
243 25 1
243 37 1
243 39 1
243 69 1
243 78 1
243 97 1
244 52 1
244 80 1
244 89 1
244 100 1
245 11 1
245 21 1
245 32 1
245 48 1
245 69 2
245 74 1
245 76 1
245 79 1
245 89 1
246 1 1
246 3 1
246 20 1
246 49 1
247 55 1
247 61 1
247 86 1
247 87 1
248 4 1
248 9 1
248 15 1
248 27 1
248 40 1
248 56 1
248 57 1
248 80 1
248 96 1
249 64 2
249 68 1
249 77 1
249 82 1
249 88 1
249 94 1
250 21 3
250 36 3
250 39 1
250 82 1
250 83 1
250 84 1
250 88 1
250 97 1
251 8 1
251 17 1
251 20 1
251 37 1
251 64 1
251 66 1
251 84 1
251 90 1
251 100 2
252 32 2
252 39 1
252 51 1
252 79 1
252 89 1
252 97 1
252 100 1
253 30 1
253 66 1
253 71 1
253 97 1
254 15 1
254 17 1
254 41 1
254 51 1
254 79 1
254 97 1
255 3 1
255 10 1
255 68 2
255 77 1
255 79 1
255 87 1
255 93 1
255 94 1
256 14 1
256 28 1
256 60 1
256 74 1
256 87 1
257 22 2
257 25 1
257 29 1
257 31 1
257 35 1
257 43 1
257 64 1
258 26 1
258 39 1
258 54 1
258 56 1
258 57 1
258 73 1
258 98 1
259 12 1
259 15 1
259 17 1
259 24 1
259 36 1
259 49 1
259 51 1
259 60 1
259 80 2
259 86 1
260 12 1
260 14 1
260 23 1
260 43 1
260 46 1
260 48 1
260 66 1
260 81 1
260 94 1
260 98 2
261 12 1
261 20 1
261 50 1
261 72 1
261 83 1
262 5 2
262 8 1
262 21 1
262 37 1
262 55 1
262 71 3
262 80 1
262 81 1
262 99 1
263 19 1
263 34 1
263 37 1
263 40 2
263 63 2
263 65 1
263 66 1
263 82 1
263 100 1
264 3 1
264 26 1
264 71 1
264 81 1
264 83 1
264 97 1
265 5 1
265 30 1
265 43 1
265 54 1
265 75 1
265 83 1
266 13 1
266 35 1
266 59 1
266 83 2
266 85 1
266 87 1
267 1 2
267 28 1
267 29 2
267 41 1
267 55 1
267 86 1
268 5 1
268 19 1
268 26 1
268 46 1
268 91 1
268 95 1
268 98 1
269 8 1
269 12 1
269 16 2
269 21 1
269 23 1
269 27 1
269 39 2
269 47 1
269 49 1
269 62 1
269 73 1
269 98 1
270 9 1
270 28 1
270 29 1
270 33 1
270 44 1
270 47 1
270 54 1
270 59 1
270 66 1
270 96 1
271 25 1
271 39 1
271 44 1
271 46 1
271 49 1
271 66 1
271 85 1
272 9 1
272 19 1
272 26 2
272 27 1
272 39 1
272 44 1
272 62 1
272 70 1
272 71 1
273 23 1
273 50 1
273 52 1
273 61 1
273 65 1
273 94 1
274 4 1
274 5 1
274 43 1
274 63 1
274 70 1
274 79 1
274 84 1
275 1 1
275 13 1
275 14 1
275 32 1
275 43 1
275 48 1
275 51 1
275 56 2
276 11 1
276 20 1
276 76 1
276 91 1
276 93 1
277 1 1
277 28 1
277 30 1
277 54 1
277 63 1
277 64 1
277 65 2
278 15 1
278 17 1
278 19 1
278 37 1
278 45 1
278 63 1
279 14 1
279 16 1
279 17 1
279 23 1
279 25 1
279 55 1
279 93 1
279 99 1
280 32 2
280 34 1
280 47 1
280 51 1
280 58 1
280 65 1
280 67 1
280 90 1
281 1 1
281 37 1
281 44 1
281 51 1
281 52 1
281 73 1
281 86 1
282 13 1
282 40 2
282 63 1
282 78 1
282 92 1
282 96 1
282 97 1
283 4 1
283 11 1
283 48 1
283 61 1
283 64 1
283 65 1
283 86 1
284 1 1
284 19 1
284 23 1
284 29 1
284 38 1
284 43 1
285 13 1
285 15 1
285 35 1
285 54 1
285 62 1
285 69 1
285 76 1
286 55 1
286 83 1
286 86 1
286 89 1
287 96 1
288 6 1
288 24 1
288 29 1
288 44 1
288 63 1
288 79 1
288 96 1
289 4 1
289 10 1
289 14 1
289 15 2
289 35 1
289 62 1
289 90 1
289 96 1
290 4 1
290 5 1
290 26 2
290 38 1
290 85 1
291 16 1
291 66 1
291 83 1
291 100 1
292 1 1
292 14 1
292 55 1
292 62 2
292 72 1
292 77 1
292 91 1
293 18 1
293 24 1
293 39 1
293 52 1
293 60 1
293 71 1
293 73 1
293 96 1
293 98 1
294 42 1
294 54 1
294 72 1
294 82 3
295 21 1
295 23 1
295 33 1
295 37 1
295 53 1
295 60 1
295 61 1
295 71 1
295 87 1
295 89 1
295 99 1
296 9 1
296 15 1
296 26 1
296 31 1
296 74 1
296 91 1
296 95 1
297 3 1
297 7 1
297 12 1
297 59 1
297 65 1
297 69 1
297 83 1
297 87 2
298 2 1
298 7 1
298 35 1
298 40 1
298 45 1
298 52 1
298 66 1
298 71 2
299 18 1
299 26 2
299 28 1
299 32 1
299 33 1
299 46 1
299 48 1
299 71 1
299 75 1
299 81 1
300 6 1
300 27 1
300 28 1
300 34 1
300 48 1
300 59 1
300 68 1
300 93 1
300 95 1
301 20 1
301 22 1
301 48 1
301 66 1
301 67 1
302 15 1
302 34 1
302 41 1
302 69 1
302 73 1
302 81 1
302 83 1
302 98 1
302 100 1
303 1 1
303 7 1
303 15 1
303 20 1
303 30 1
303 47 1
303 67 1
304 14 1
304 49 1
304 66 1
304 78 1
304 88 1
304 91 1
305 43 1
305 45 1
305 52 1
305 57 1
305 74 2
305 77 1
305 80 1
305 88 1
305 90 1
306 31 1
306 33 1
306 47 1
306 72 1
306 81 1
306 87 1
307 12 1
307 15 1
307 26 1
307 31 1
307 50 1
307 57 1
307 59 1
307 78 1
307 90 2
308 20 1
308 26 1
308 79 1
308 85 1
309 18 1
309 27 1
309 40 1
309 50 1
309 54 1
309 95 1
310 10 1
310 29 1
310 37 1
310 42 1
310 53 1
310 59 1
310 70 1
310 71 1
310 82 1
310 95 1
311 21 1
311 34 1
311 44 2
311 46 1
311 48 1
311 75 1
311 82 1
311 84 1
311 85 1
311 88 1
311 89 1
311 94 1
311 97 1
312 13 1
312 34 1
312 42 1
312 49 3
312 72 1
312 75 1
312 79 1
312 96 1
312 98 1
312 100 1
313 7 1
313 22 2
313 31 1
313 32 3
313 51 2
313 56 1
313 58 1
313 61 1
313 88 1
313 99 1
314 5 1
314 28 1
314 29 1
314 59 1
315 12 1
315 27 1
315 87 1
315 94 1
316 6 1
316 12 1
316 53 1
316 62 1
316 92 1
316 100 1
317 39 1
317 41 1
317 52 1
317 58 1
317 84 1
318 27 1
318 62 1
318 84 1
319 5 1
319 26 1
319 53 2
319 65 1
320 22 1
320 65 1
320 72 1
321 60 1
321 63 1
321 74 1
321 84 1
321 87 1
321 89 1
321 95 1
322 1 1
322 3 1
322 7 1
322 9 1
322 16 2
322 40 1
322 47 1
322 64 1
322 78 2
322 81 1
322 91 1
322 96 1
323 14 1
323 19 1
323 23 1
323 26 1
323 54 1
323 66 1
324 15 1
324 30 1
324 52 1
325 18 1
325 30 1
325 32 1
325 36 2
325 67 1
325 81 1
325 93 1
325 96 1
325 99 1
326 2 1
326 25 1
326 81 2
326 85 1
326 93 1
327 20 1
327 41 1
327 52 1
327 60 1
327 92 1
328 14 1
328 22 1
328 39 1
328 64 1
328 65 1
328 82 2
328 84 1
328 94 1
329 5 1
329 34 1
329 51 1
329 87 1
330 2 1
330 17 1
330 29 1
330 35 1
330 48 1
330 74 1
330 84 1
330 85 1
330 91 1
330 92 1
331 11 1
331 13 1
331 19 1
331 36 1
331 39 1
331 49 1
331 59 1
331 65 1
331 67 1
331 72 2
331 74 1
331 90 1
332 4 1
332 5 1
332 25 1
332 27 1
332 30 1
332 33 1
332 56 1
332 69 1
332 87 1
333 9 1
333 17 1
333 28 1
333 41 1
333 43 1
333 77 1
333 84 1
333 88 1
333 92 1
334 40 1
334 49 1
334 55 1
334 59 1
334 68 1
334 87 1
335 19 1
335 23 1
335 38 2
335 43 1
335 85 1
335 88 1
336 2 1
336 9 1
336 29 1
336 35 1
336 39 1
336 56 1
336 63 1
337 50 1
337 64 1
337 73 1
337 81 1
337 88 1
338 17 1
338 36 1
338 41 1
338 58 1
338 80 1
338 82 1
338 87 1
339 15 1
339 17 1
339 29 1
339 54 1
339 55 1
339 78 1
340 9 1
340 11 1
340 18 1
340 26 1
340 36 1
341 17 1
341 22 1
341 25 1
341 27 2
341 29 1
341 39 1
341 49 1
341 66 1
341 79 1
342 3 1
342 8 1
342 17 1
342 29 1
342 37 1
342 42 1
342 46 1
342 86 1
342 95 1
343 1 1
343 2 1
343 55 1
343 65 1
343 68 1
343 75 1
343 98 2
343 100 1
344 5 1
344 6 1
344 7 1
344 54 1
344 55 1
344 57 1
345 9 1
345 32 1
345 41 1
345 76 2
346 9 1
346 31 2
346 66 1
346 80 1
346 91 2
346 95 1
346 99 1
347 22 1
347 32 1
347 53 1
347 64 1
347 65 1
347 74 1
347 77 1
347 80 1
347 89 1
348 5 1
348 14 1
348 15 1
348 24 1
348 37 1
348 41 1
348 46 1
348 49 1
348 78 1
348 81 1
349 50 1
349 52 1
349 71 1
349 73 1
349 99 2
350 6 1
350 15 2
350 35 1
350 62 1
350 77 1
351 2 1
351 5 1
351 15 1
351 83 1
351 84 1
352 10 1
352 21 2
352 47 1
352 53 1
352 60 1
352 73 1
352 85 1
353 61 1
353 64 2
353 79 2
353 95 1
353 100 1
354 7 1
354 12 1
354 19 1
354 25 1
354 52 1
354 55 2
354 65 1
355 13 1
355 18 1
355 22 1
355 25 1
355 50 1
355 59 1
355 63 1
355 76 1
355 81 1
355 82 2
355 89 1
355 100 1
356 94 1
357 8 1
357 31 1
357 53 1
357 95 1
358 1 1
358 10 2
358 36 1
358 38 1
358 54 1
358 70 1
358 85 1
358 95 1
359 1 1
359 12 1
359 20 1
359 30 1
359 38 1
359 39 1
359 100 1
360 6 1
360 15 1
360 30 1
360 43 1
360 67 1
360 79 1
361 1 1
361 13 1
361 29 1
361 64 1
361 69 1
361 74 1
361 76 1
361 95 1
362 13 2
362 53 1
362 77 1
362 87 1
362 98 2
363 19 1
363 28 1
363 83 1
364 13 1
364 18 1
364 34 1
364 55 1
364 59 1
364 74 1
364 94 1
365 11 2
365 34 1
365 43 1
365 85 1
366 26 1
366 28 1
366 30 1
366 39 1
366 46 1
367 20 1
367 21 1
367 25 2
367 78 2
368 3 1
368 12 1
368 63 1
368 64 1
368 66 1
368 80 1
368 86 1
368 95 1
369 19 1
369 28 1
369 62 1
369 64 1
369 88 1
370 5 1
370 18 1
370 30 1
370 47 1
370 52 1
370 76 1
371 6 1
371 11 1
371 54 1
371 62 1
371 72 1
371 76 1
371 78 1
371 89 1
371 92 1
371 95 1
372 20 1
372 32 1
372 35 1
372 38 1
372 44 1
372 66 2
372 88 1
372 99 1
373 31 1
373 32 1
373 47 1
373 58 1
373 62 1
373 71 1
373 90 1
373 93 1
374 17 1
374 21 1
374 38 1
374 44 1
374 47 1
374 53 1
374 57 1
374 64 1
374 67 1
374 84 1
375 10 1
375 32 1
375 33 1
375 50 1
375 61 1
375 71 1
375 85 1
376 18 1
376 22 1
376 30 1
376 68 1
376 96 1
377 6 1
377 15 1
377 28 1
377 38 2
377 62 1
377 70 1
377 72 1
377 73 1
377 81 1
378 5 1
378 17 1
378 24 1
378 46 1
378 76 1
378 88 1
378 92 1
379 5 1
379 26 1
379 34 1
379 36 1
379 66 1
379 75 1
379 84 1
379 87 1
380 3 1
380 13 1
380 18 1
380 28 1
380 48 1
380 53 1
380 55 1
380 65 1
380 79 1
380 96 1
381 10 2
381 12 1
381 28 2
381 30 1
381 42 1
381 51 1
381 67 1
382 14 1
382 32 1
382 49 1
382 57 1
382 59 1
382 70 1
382 83 1
383 24 1
383 40 1
383 94 1
383 100 1
384 27 1
384 28 1
384 36 1
384 64 2
384 78 1
384 79 1
384 95 1
385 2 1
385 7 1
385 41 1
385 68 1
385 73 1
385 77 1
386 19 1
386 57 1
386 82 1
386 97 1
387 36 1
387 41 1
387 51 1
387 58 1
387 59 1
387 65 1
387 82 1
387 97 1
388 12 1
388 15 1
388 19 1
388 23 1
388 31 1
388 45 1
388 47 1
388 49 1
388 54 2
388 85 1
388 88 1
388 92 1
388 98 1
389 6 1
389 15 1
389 40 1
389 43 1
389 47 1
389 63 1
389 76 1
389 89 1
389 90 1
389 93 1
390 8 1
390 14 1
390 41 1
390 46 1
390 50 1
390 57 1
390 61 1
390 71 1
390 73 2
390 75 1
391 5 1
391 47 1
391 48 1
391 65 1
391 74 1
391 81 1
392 60 1
392 62 1
392 72 1
393 1 1
393 7 1
393 49 1
393 64 1
393 70 1
393 77 1
393 78 1
393 91 1
393 92 1
394 16 1
394 50 1
394 99 1
395 3 1
395 7 1
395 26 1
395 44 1
395 49 1
395 57 1
395 78 1
396 3 1
396 22 1
396 23 1
396 27 1
396 49 1
396 51 1
396 71 1
396 79 1
396 89 1
397 17 1
397 19 1
397 49 1
397 63 1
397 82 1
397 99 1
398 23 1
398 43 1
398 60 1
398 88 1
399 10 1
399 34 1
399 57 1
399 69 1
400 35 1
400 41 1
400 68 1
400 78 1
400 83 1
400 92 1
401 7 1
401 15 1
401 24 1
401 32 3
401 42 1
401 70 1
402 80 1
402 88 1
403 20 1
403 35 1
403 79 1
403 92 1
404 4 1
404 11 1
404 32 1
404 36 1
404 57 3
404 61 2
404 65 1
404 66 1
404 69 1
404 70 1
404 80 1
405 19 1
405 20 1
405 28 2
405 33 1
405 35 1
405 44 1
405 51 1
405 62 1
405 70 1
405 76 1
406 13 1
406 32 1
406 37 1
406 65 1
406 69 1
406 75 1
406 85 1
406 95 1
406 96 1
407 31 1
407 66 1
407 77 1
407 82 1
407 87 2
407 95 1
408 4 1
408 24 1
408 25 1
408 48 1
408 74 1
408 77 1
409 1 1
409 9 1
409 32 1
409 66 1
409 86 1
410 3 1
410 7 1
410 21 1
410 86 1
411 15 1
411 49 1
412 3 1
412 7 1
412 23 1
412 30 1
412 40 1
412 49 1
412 71 1
412 76 1
412 88 1
412 94 1
413 12 1
413 16 1
413 38 2
413 59 1
413 79 1
413 94 1
413 99 1
414 27 1
414 28 1
414 37 1
414 39 1
414 42 1
414 54 1
414 63 1
414 72 1
414 80 1
414 93 2
414 94 3
414 95 1
415 6 1
415 34 1
415 38 1
415 51 1
415 79 1
415 93 1
416 12 1
416 17 1
416 53 1
416 61 1
416 72 1
416 79 1
416 90 1
416 96 1
416 99 1
417 50 1
417 61 1
418 9 1
418 18 1
418 29 1
418 39 1
418 44 1
418 45 1
418 66 1
418 76 1
418 99 1
419 12 1
419 13 1
419 41 1
419 63 1
419 73 1
419 95 1
420 10 1
420 14 2
420 22 1
420 31 2
420 37 1
420 53 1
420 78 1
420 98 1
421 3 1
421 29 1
421 69 1
421 99 1
422 27 1
422 31 1
422 33 1
422 63 1
422 75 1
422 80 1
422 82 1
423 33 1
423 39 1
423 50 1
423 73 1
423 74 1
423 86 1
423 89 1
423 93 1
424 5 1
424 41 1
424 43 1
424 48 1
424 59 1
424 65 1
424 78 1
424 81 1
424 95 1
425 5 1
425 8 1
425 23 1
425 28 1
425 31 1
425 91 1
426 2 1
426 3 1
426 17 1
426 39 1
426 41 1
426 47 1
426 48 1
426 91 2
427 27 1
427 32 1
427 36 1
427 58 1
427 59 1
428 15 1
428 36 1
428 39 1
428 40 1
428 70 1
428 78 1
428 99 1
429 2 2
429 18 1
429 52 1
429 56 2
429 72 1
429 84 1
429 99 1
430 9 1
430 13 1
430 16 1
430 17 1
430 40 2
430 55 1
431 43 1
431 58 1
431 65 2
431 67 1
431 68 1
431 86 1
432 26 1
432 30 1
432 36 1
432 46 1
432 55 1
432 57 1
432 67 1
432 71 2
432 100 2
433 15 1
433 61 1
433 67 1
433 88 1
434 8 2
434 14 1
434 19 1
434 20 1
434 35 1
434 38 1
434 40 1
434 50 1
434 61 1
434 75 1
434 90 1
434 91 1
435 33 1
435 77 1
435 85 1
435 98 1
436 12 1
436 21 1
436 25 1
436 44 2
436 55 1
436 56 1
436 61 1
436 62 1
436 71 1
436 93 1
437 9 1
437 31 1
437 38 1
437 44 1
437 47 1
437 49 2
437 77 1
438 6 1
438 88 1
439 2 1
439 10 1
439 17 1
439 22 1
439 48 1
439 61 1
439 84 1
440 5 1
440 24 1
440 29 1
440 31 1
440 42 1
440 79 1
440 87 1
441 5 1
441 8 1
441 28 1
441 52 1
442 2 1
442 8 1
442 28 1
442 54 1
442 65 1
442 67 1
442 72 1
442 76 1
442 91 1
442 92 1
442 93 1
443 14 1
443 15 1
443 49 1
443 52 1
443 67 1
443 78 1
443 80 1
443 82 1
444 13 1
444 23 1
444 27 1
444 29 1
444 54 1
444 57 1
444 58 1
444 84 1
445 9 1
445 23 1
445 30 1
445 32 1
445 47 1
445 48 1
445 54 1
445 68 2
445 74 1
445 80 1
445 89 1
445 97 1
446 23 1
446 70 1
446 80 2
446 100 1
447 22 1
447 30 1
447 47 1
447 77 1
447 79 1
447 81 1
448 21 1
448 35 1
448 38 1
448 41 1
448 44 1
448 67 1
448 75 1
448 85 1
448 89 1
449 9 1
449 38 1
449 42 1
449 60 1
449 62 1
450 3 1
450 46 3
450 65 1
450 86 1
450 92 1
450 96 1
451 45 1
451 52 1
451 60 1
451 89 1
452 2 1
452 57 1
452 77 1
452 97 1
453 45 1
453 70 1
453 73 1
454 44 1
454 46 1
454 51 1
454 52 1
454 53 1
454 85 2
454 89 1
455 12 1
455 15 1
455 22 1
455 36 1
455 41 1
455 92 1
456 4 2
456 5 1
456 9 1
456 16 1
456 36 1
456 47 1
456 69 1
456 75 1
457 8 1
457 17 1
457 24 1
457 33 1
457 44 1
457 64 1
457 67 1
458 14 1
458 18 1
458 34 1
458 51 1
458 53 1
458 74 1
458 79 1
458 81 1
458 82 1
458 83 1
459 10 2
459 21 1
459 30 1
459 34 2
459 46 1
459 76 1
459 82 1
459 96 1
460 8 1
460 11 1
460 67 1
460 83 1
460 88 1
460 91 1
460 96 2
461 8 2
461 31 1
461 39 1
461 52 2
461 67 1
461 69 1
461 79 1
461 88 1
461 89 1
461 90 1
461 94 1
462 10 1
462 12 1
462 18 1
462 61 1
462 78 2
462 85 1
462 93 1
462 99 1
463 2 1
463 3 1
463 10 1
463 38 1
463 45 1
463 54 1
463 55 1
463 73 1
463 74 1
463 92 1
463 93 1
463 96 1
464 8 1
464 11 1
464 38 1
464 86 1
464 91 2
464 99 1
465 7 1
465 11 1
465 31 1
465 39 1
465 61 1
465 62 1
465 71 1
465 89 1
465 91 1
465 99 1
466 12 1
466 22 1
466 25 2
466 26 1
466 42 1
466 53 1
466 57 1
466 64 1
466 66 1
467 2 1
467 15 1
467 16 1
467 20 1
467 37 1
467 68 1
467 88 1
468 23 1
468 29 1
468 35 1
468 57 1
468 80 1
468 83 1
468 96 1
469 56 1
469 62 1
469 67 1
469 76 1
469 94 1
470 18 1
470 22 1
470 42 1
470 43 1
470 57 1
470 90 1
470 94 1
470 100 1
471 19 1
471 47 1
471 54 1
471 61 1
471 77 1
471 89 1
471 97 1
472 56 1
472 62 1
472 82 1
472 91 1
473 30 1
473 59 1
473 84 1
473 95 1
474 65 1
475 26 1
475 41 1
475 59 1
475 67 1
475 69 1
475 70 1
476 18 1
476 62 1
476 63 1
476 67 1
476 73 1
476 98 1
477 29 1
477 37 1
477 40 1
477 48 1
477 61 1
477 64 1
477 77 2
477 92 1
477 93 1
478 12 2
478 14 1
478 47 1
478 63 1
478 64 2
478 65 1
478 98 1
479 11 1
479 21 1
479 34 1
479 37 1
479 54 1
479 79 2
479 96 1
480 7 1
480 13 1
480 16 1
480 52 1
480 54 1
480 64 1
480 66 1
481 4 1
481 9 1
481 20 1
481 41 1
481 48 1
481 66 1
481 69 1
481 70 1
481 78 1
481 91 2
482 2 1
482 3 1
482 87 1
482 99 1
483 9 1
483 23 1
483 35 1
483 53 1
483 66 2
483 69 1
483 92 2
484 7 1
484 20 1
484 25 1
484 33 1
484 35 1
484 50 1
484 55 1
484 70 1
484 99 1
485 15 1
485 30 1
485 34 2
485 35 1
485 62 1
485 63 1
485 72 1
485 73 1
485 74 1
485 77 1
485 100 1
486 47 1
486 58 1
486 92 1
486 95 1
487 68 1
487 79 1
487 92 1
487 93 1
487 100 1
488 13 1
488 15 1
488 22 1
488 34 1
488 45 1
488 51 1
488 89 1
488 100 1
489 22 1
489 40 1
489 43 2
489 74 1
489 85 1
489 91 1
490 31 1
490 49 2
490 89 1
490 93 1
490 96 1
491 1 1
491 99 1
492 14 1
492 24 1
492 31 1
492 40 1
492 56 1
492 65 1
492 67 1
492 91 1
492 96 1
493 35 1
493 40 1
493 47 1
493 75 1
493 95 1
494 51 1
494 53 1
494 65 1
494 90 1
495 6 1
495 26 1
495 59 1
495 83 1
495 84 1
495 94 1
496 25 1
496 59 1
496 64 1
497 8 1
497 42 1
497 60 1
497 64 1
497 87 1
497 95 1
498 14 1
498 55 1
498 66 1
498 97 1
499 13 1
499 15 1
499 16 1
499 30 1
499 33 1
499 51 1
499 59 1
499 63 1
499 68 1
499 75 2
499 76 1
499 78 1
500 1 1
500 24 1
500 27 2
500 65 1
500 69 1
500 71 1
500 83 1
500 90 1
501 4 1
501 12 1
501 20 1
501 30 2
501 50 1
501 58 1
501 77 1
501 81 1
501 88 1
501 89 1
501 95 1
502 3 1
502 36 1
502 57 1
502 60 2
502 64 2
502 70 2
502 90 1
502 92 1
502 96 1
503 20 1
503 32 1
503 42 1
503 71 1
503 75 1
503 99 1
504 7 1
504 19 1
504 50 1
504 54 1
505 6 1
505 7 2
505 19 2
505 25 1
505 41 1
505 85 1
505 97 1
506 8 1
506 17 1
506 37 1
506 50 1
506 56 1
506 65 1
506 69 1
506 80 1
506 84 1
507 33 1
507 39 1
507 48 2
507 55 1
507 70 1
507 71 1
507 73 1
507 82 1
507 93 1
508 2 1
508 8 1
508 12 1
508 16 1
508 18 1
508 33 1
508 50 1
508 67 1
508 72 1
508 86 1
508 95 1
508 96 1
509 12 1
509 25 1
509 28 1
509 29 1
509 32 1
509 39 1
509 64 1
509 65 1
509 66 1
509 69 1
509 78 2
509 83 1
509 84 1
510 7 1
510 20 1
510 23 1
510 29 1
510 38 1
510 61 1
510 95 1
511 9 1
511 89 1
512 4 1
512 6 1
512 9 1
512 11 1
512 30 1
512 34 1
512 40 1
512 42 1
512 54 1
512 72 1
512 76 1
512 87 1
512 90 1
512 96 1
513 10 2
513 15 1
513 23 1
513 35 1
513 76 1
514 18 2
514 21 1
514 29 1
514 67 1
514 85 1
514 89 1
514 93 1
514 94 2
514 95 1
514 98 1
515 6 1
515 12 1
515 29 1
515 48 1
515 52 2
515 58 1
515 63 1
515 68 2
515 74 1
515 75 1
515 83 1
515 95 1
516 9 2
516 33 1
516 64 1
516 67 1
516 72 1
516 76 3
516 77 1
516 99 1
517 8 1
517 22 1
517 42 1
517 46 1
517 63 1
517 78 1
517 93 3
518 31 1
518 32 1
518 55 1
518 73 1
518 89 1
518 95 1
518 100 1
519 9 1
519 15 1
519 21 1
519 23 1
519 30 1
519 43 1
519 55 2
519 87 1
520 22 1
520 30 1
520 34 1
520 37 1
520 46 1
521 15 1
521 25 1
521 42 1
521 62 1
521 73 1
521 91 1
522 1 1
522 6 1
522 16 1
522 38 1
522 41 1
522 63 1
522 68 1
522 80 1
523 2 1
523 27 1
523 79 1
523 87 1
523 91 1
523 100 2
524 8 1
524 27 1
524 32 1
524 51 1
524 61 1
524 82 1
525 3 1
525 26 1
525 32 1
525 36 1
525 42 1
525 46 1
525 47 1
525 79 1
526 25 1
526 28 1
526 29 2
526 33 1
526 36 1
526 55 1
526 56 1
526 86 1
526 90 1
527 26 1
527 35 1
527 42 1
527 66 1
527 69 1
527 85 1
527 95 1
527 96 1
527 98 1
528 8 1
528 12 1
528 14 1
528 82 1
528 95 1
528 98 1
529 10 1
529 50 1
529 73 1
529 92 1
529 98 1
530 11 1
530 38 1
530 51 1
530 84 1
530 93 1
531 17 1
531 23 1
531 26 1
531 55 1
531 56 1
531 99 1
532 2 1
532 6 1
532 11 1
532 35 1
532 37 1
532 41 1
532 70 1
532 84 1
532 85 1
532 88 1
532 96 1
533 22 1
534 26 1
534 47 1
534 61 1
534 85 1
534 92 1
535 3 2
535 8 1
535 20 1
535 22 1
535 27 1
535 30 1
535 31 2
535 37 1
535 43 1
535 60 1
535 98 1
536 56 1
536 66 1
536 68 1
536 81 1
536 83 1
536 84 1
537 6 1
537 23 1
537 35 1
537 46 1
537 79 1
537 87 1
537 88 1
538 23 1
538 49 1
538 76 1
538 80 1
538 83 1
538 88 1
539 7 2
539 13 1
539 14 1
539 52 1
539 56 1
539 77 1
539 79 1
539 91 1
540 15 2
540 31 1
540 37 1
540 64 1
540 75 1
540 98 1
541 3 1
541 11 1
541 15 1
541 24 1
541 35 1
541 40 1
541 81 1
541 92 1
541 99 1
542 1 1
542 17 1
542 27 2
542 38 1
542 71 1
543 3 1
543 17 1
543 19 3
543 40 1
543 44 1
543 76 2
543 87 1
543 95 1
543 97 1
543 99 1
544 21 1
544 77 1
544 88 1
545 15 1
545 61 1
545 63 1
545 64 1
545 86 1
545 97 2
546 8 1
546 39 1
546 51 1
546 59 2
546 65 1
546 84 2
546 85 1
547 18 1
547 48 1
547 59 1
547 67 1
547 91 2
548 30 1
548 35 1
548 37 1
548 45 1
548 62 1
549 3 1
549 10 1
549 35 1
549 44 1
549 59 1
549 76 1
549 78 1
549 79 1
549 86 1
549 92 1
550 6 2
550 11 1
550 19 2
550 40 1
550 41 1
550 51 1
550 62 1
550 76 1
551 43 1
551 45 1
551 47 1
551 52 1
551 71 1
551 83 1
551 85 1
551 88 1
551 90 1
552 4 1
552 5 1
552 32 1
552 33 1
552 66 2
552 73 1
552 90 1
552 94 1
553 20 1
553 44 1
553 47 1
553 57 1
553 69 2
553 100 1
554 22 1
554 23 1
554 32 1
554 38 1
554 47 1
555 12 1
555 17 1
555 34 1
555 73 1
555 74 1
555 78 1
555 83 1
556 5 1
556 16 1
556 25 1
556 35 1
556 69 1
556 83 1
556 92 1
557 12 1
557 18 1
557 26 1
557 29 1
557 41 1
557 51 1
557 71 1
557 83 1
557 84 1
557 86 1
557 96 1
558 3 1
558 18 1
558 28 1
558 31 1
558 34 1
558 48 1
558 60 1
558 86 1
558 93 1
559 3 1
559 12 2
559 15 1
560 28 1
560 32 1
560 34 1
560 55 1
560 74 1
560 78 1
560 84 1
560 98 1
561 60 1
561 63 1
561 66 1
561 77 1
561 80 1
561 98 1
562 6 1
562 8 1
562 51 1
562 80 1
562 81 1
562 84 1
562 99 1
563 51 2
563 57 1
563 59 1
563 77 1
563 85 1
564 6 1
564 10 1
564 39 1
564 54 1
564 55 1
564 94 1
565 3 1
565 16 1
565 23 1
565 25 1
565 33 1
565 35 2
565 54 1
565 55 1
565 57 1
565 67 1
565 90 1
565 98 1
565 99 1
566 10 1
566 11 1
566 30 1
566 45 1
566 51 1
566 75 1
566 78 1
566 80 1
567 9 1
567 11 1
567 30 1
567 43 1
567 74 1
567 95 1
568 3 1
568 20 1
568 36 1
568 69 1
568 87 1
568 94 1
569 22 1
569 52 1
569 61 1
569 70 1
570 1 1
570 18 1
570 24 1
570 25 1
570 28 2
570 30 2
570 45 1
570 56 1
570 81 1
571 15 1
571 27 1
571 40 1
571 79 1
571 85 1
571 87 1
571 90 1
572 2 1
572 8 1
572 14 1
572 27 1
572 39 1
572 56 1
572 60 1
572 90 1
573 38 1
573 55 1
573 66 1
574 17 1
574 28 1
574 41 1
574 62 1
574 91 1
575 3 1
575 4 1
575 35 2
575 61 1
575 94 1
576 13 1
576 20 1
576 22 1
576 44 1
576 49 2
576 63 1
576 85 1
577 6 1
577 26 1
577 32 1
577 40 1
577 67 1
577 89 1
578 8 1
578 35 1
578 95 1
578 99 1
579 2 1
579 7 2
579 12 2
579 14 2
579 17 1
579 77 1
580 13 1
580 36 1
580 58 1
580 61 1
580 65 1
581 21 1
581 82 2
581 93 1
581 96 1
581 97 1
582 20 1
582 39 1
582 52 1
582 55 1
582 77 1
582 78 1
583 13 1
583 37 1
583 42 1
583 60 1
583 63 1
583 80 1
584 36 1
584 40 1
584 60 1
584 98 2
585 26 1
585 29 1
585 45 2
585 79 1
585 96 1
586 39 1
586 46 1
586 53 1
586 67 3
586 70 1
587 2 1
587 30 1
587 35 1
587 43 1
587 57 1
587 62 1
587 82 2
587 90 1
587 99 1
588 15 1
588 17 1
588 21 1
588 33 1
588 34 1
588 41 1
588 64 1
588 73 1
589 2 1
589 3 1
589 20 1
589 27 1
589 54 1
589 63 1
589 67 1
589 74 1
589 87 1
589 91 1
590 14 1
590 39 1
590 40 1
590 79 1
590 81 1
590 85 1
590 93 2
590 98 1
591 16 2
591 41 1
591 79 1
591 81 1
592 1 1
592 19 1
592 22 1
592 33 1
592 57 1
593 3 1
593 32 1
593 47 2
593 49 1
593 57 1
593 64 1
593 76 1
593 77 1
594 13 1
594 19 1
594 35 1
594 46 1
594 61 1
594 67 1
594 87 1
594 88 1
595 9 1
595 33 1
595 68 1
596 2 1
596 26 1
596 30 1
596 50 1
596 60 1
596 62 1
596 66 1
596 84 1
596 92 2
596 95 1
597 6 1
597 43 2
597 59 1
597 74 1
597 90 1
597 99 1
598 24 2
598 53 1
598 77 1
598 85 1
598 87 1
598 94 1
599 86 1
599 88 1
600 83 1
600 96 1
601 20 1
601 24 1
601 30 1
601 42 1
601 48 1
601 62 1
601 72 2
601 90 2
601 91 1
602 5 1
602 6 1
602 9 1
602 10 1
602 11 1
602 19 1
602 35 2
602 42 1
602 51 1
602 75 1
602 90 1
603 1 1
603 8 1
603 18 1
603 31 1
603 32 1
603 52 1
603 66 1
603 72 1
604 13 1
604 51 1
604 59 1
605 11 1
605 21 1
605 31 1
605 41 1
605 43 1
605 67 1
605 80 1
606 11 1
606 21 1
606 28 2
606 38 1
606 56 2
606 97 1
607 30 1
607 42 1
607 55 1
607 56 1
607 66 1
607 67 1
607 79 1
607 89 1
608 19 1
608 20 1
608 28 1
608 31 1
608 69 1
608 72 1
608 76 1
608 86 1
609 12 1
609 15 1
609 34 1
609 46 1
609 56 1
609 66 1
609 76 1
609 87 1
610 19 1
610 28 1
610 52 1
610 65 1
610 72 1
610 90 1
610 94 1
611 21 1
611 22 1
611 40 1
611 44 1
611 47 1
611 57 1
612 8 1
612 10 1
612 16 1
612 26 1
612 41 1
612 46 2
612 59 1
612 78 1
613 4 1
613 38 1
613 43 1
613 62 1
613 73 1
613 85 1
613 92 1
613 95 1
614 12 1
614 65 1
614 69 1
614 73 1
614 78 1
614 83 1
615 17 1
615 29 1
615 32 1
615 45 1
615 59 2
615 72 2
615 97 1
616 5 1
616 23 1
616 25 1
616 28 2
616 36 1
616 72 2
617 1 1
617 3 1
617 12 1
617 14 1
617 22 1
617 33 2
617 40 1
617 86 1
617 91 1
618 3 2
618 13 1
618 73 1
618 87 1
619 13 1
619 30 1
619 57 1
619 59 1
619 68 1
619 76 1
620 10 1
620 17 1
620 21 1
620 23 1
620 75 1
620 90 2
620 94 1
620 96 1
621 10 1
621 22 1
621 34 1
621 38 2
622 11 1
622 42 2
622 99 1
623 13 1
623 18 1
623 35 1
623 45 1
623 56 1
623 67 1
623 82 2
624 12 1
624 20 1
624 61 1
624 74 1
624 100 1
625 8 1
625 17 1
625 20 1
625 27 1
625 44 1
625 56 1
625 73 1
625 77 1
625 91 1
626 48 1
626 52 1
626 67 1
626 89 1
626 96 1
626 98 1
627 28 1
627 30 1
627 56 1
627 60 1
627 67 1
627 98 1
628 15 1
628 20 1
628 45 1
628 47 1
628 62 1
628 67 1
628 70 1
628 98 1
629 26 1
629 36 1
629 41 1
629 71 2
629 76 1
629 100 1
630 10 1
630 17 1
630 36 1
630 81 1
630 95 1
631 11 1
631 18 1
631 21 1
631 33 1
631 53 2
631 55 1
631 100 1
632 3 1
632 44 1
632 56 1
632 61 1
632 83 1
632 91 1
633 26 1
633 32 1
633 65 1
633 68 1
633 73 1
633 91 1
634 12 1
634 13 1
634 45 1
634 69 1
634 80 1
634 89 1
634 90 1
634 98 1
635 8 1
635 82 1
635 86 1
635 96 1
636 17 1
636 19 1
636 59 1
636 64 1
636 71 1
636 77 1
636 78 1
636 81 1
636 92 1
636 94 1
637 14 1
637 50 1
637 66 1
637 68 1
637 81 1
637 82 1
638 20 1
638 23 1
638 36 1
638 47 1
638 60 1
638 64 1
638 67 1
638 74 1
638 78 2
639 81 1
640 49 1
640 72 1
640 78 1
640 91 1
641 1 1
641 6 1
641 9 1
641 17 1
641 28 1
641 43 1
641 57 2
641 64 1
641 69 1
641 78 1
641 79 1
641 92 1
641 93 1
642 11 1
642 12 1
642 20 1
642 25 2
642 31 1
642 38 1
642 52 1
642 83 1
643 23 1
643 27 1
643 44 1
643 81 1
644 39 1
644 54 1
644 57 1
644 72 1
645 5 1
645 7 1
645 19 2
645 27 1
645 88 1
646 9 1
646 11 1
646 25 1
646 39 1
646 43 1
646 50 2
646 64 1
646 70 1
646 90 1
647 30 1
647 50 1
647 59 1
647 60 1
647 67 3
647 75 1
647 83 1
647 86 1
647 91 1
647 100 1
648 20 1
648 57 1
648 58 1
648 82 1
649 5 1
649 22 1
649 39 1
649 56 1
649 69 1
649 77 1
650 5 1
650 14 1
650 49 1
650 56 1
650 71 1
651 47 1
651 53 1
651 57 1
651 92 1
651 96 1
652 10 1
652 46 1
652 79 1
652 90 1
653 14 1
653 33 1
653 91 1
653 94 1
654 19 1
654 39 1
654 42 1
654 66 1
655 29 1
655 47 1
655 67 1
655 86 1
655 90 1
655 95 1
656 3 1
656 24 1
656 25 1
656 29 1
656 55 1
656 63 1
656 65 1
656 66 1
656 78 1
656 88 1
656 90 1
657 8 1
657 12 2
657 15 1
657 25 1
657 30 1
657 38 1
657 48 1
657 51 1
657 77 1
658 2 1
658 9 1
658 20 1
658 57 1
658 69 2
658 79 2
658 84 1
658 96 1
659 39 1
659 65 2
659 77 1
659 82 1
660 26 1
660 35 1
660 36 1
660 41 1
660 58 1
660 72 1
660 85 1
661 32 1
661 43 1
661 47 1
661 67 1
661 74 1
661 77 1
661 87 1
662 3 1
662 21 1
662 44 1
662 47 1
662 60 1
662 66 1
662 73 1
662 98 1
663 7 1
663 57 1
663 70 1
663 71 1
663 77 2
663 81 1
664 27 1
664 60 1
664 84 1
664 89 1
664 94 1
664 97 2
665 6 1
665 22 1
665 31 1
665 36 1
665 54 1
665 58 1
665 74 1
665 78 1
665 88 1
666 28 1
666 32 1
666 42 1
667 16 1
667 17 1
667 28 1
667 70 1
667 82 1
667 99 1
668 16 1
668 30 1
668 31 1
668 34 1
668 63 1
668 80 1
669 8 1
669 30 1
669 76 1
669 97 1
670 5 1
670 25 1
670 30 1
670 37 1
670 86 1
670 87 1
671 18 1
671 40 1
671 44 1
671 50 1
671 62 1
671 66 2
671 81 1
671 96 1
672 6 1
672 12 1
672 15 1
672 18 1
672 22 1
672 23 1
672 28 1
672 40 1
672 57 1
672 65 1
672 71 2
672 74 1
672 89 1
673 7 1
673 14 1
673 34 1
673 54 1
673 79 1
673 83 1
673 86 1
673 88 2
673 95 1
674 5 2
674 16 1
674 24 1
674 29 1
674 39 1
674 48 1
674 64 1
674 72 1
674 73 1
675 5 1
675 16 1
675 18 1
675 19 1
675 72 1
675 78 1
675 80 1
675 85 1
675 87 1
675 91 1
675 93 2
675 97 1
675 99 1
676 10 1
676 60 1
676 72 1
676 73 1
676 76 1
676 78 1
676 85 1
677 3 1
677 13 1
677 15 1
677 54 1
677 59 1
677 68 1
678 23 1
678 28 1
678 36 1
678 43 2
678 64 2
678 80 1
678 90 1
679 13 1
679 17 1
679 36 1
679 49 1
679 60 1
679 68 1
679 91 1
680 5 1
680 29 1
680 33 1
680 66 1
680 68 1
680 70 1
680 84 1
681 34 1
681 53 1
681 61 1
681 89 1
682 2 1
682 4 2
682 13 1
682 39 1
682 43 1
682 44 1
682 62 1
682 72 1
682 76 1
682 95 1
683 11 1
683 35 1
683 61 2
683 70 2
683 93 1
683 95 2
683 99 1
684 22 1
684 28 1
684 35 1
684 65 1
684 90 1
684 94 1
684 98 1
685 22 1
685 23 1
685 27 1
685 43 1
685 47 1
685 80 1
686 51 1
686 88 2
687 46 1
687 54 1
687 60 1
687 67 1
688 6 1
688 14 1
688 23 1
688 25 1
688 34 1
688 51 1
688 67 1
688 69 1
688 71 1
688 76 2
689 41 1
689 61 1
689 66 1
689 74 2
689 78 1
689 82 1
689 83 2
689 87 2
689 96 1
690 26 1
690 53 1
690 57 1
690 70 1
691 25 2
691 45 1
691 72 1
691 73 1
691 81 2
692 57 1
692 65 1
692 74 1
692 89 2
692 93 1
693 56 1
693 57 1
693 74 1
693 91 1
693 96 1
694 2 1
694 7 1
694 13 1
694 17 1
694 20 1
694 37 1
694 47 1
694 82 1
694 91 1
695 17 1
695 21 1
695 40 1
695 47 1
695 60 2
695 61 1
695 71 1
695 76 2
695 88 1
696 1 2
696 8 1
696 23 1
696 32 1
696 33 1
696 51 1
696 67 1
696 75 1
696 79 2
696 80 1
697 17 1
697 39 1
697 52 1
697 90 1
697 96 1
698 2 1
698 40 1
698 45 1
698 49 1
698 78 1
698 98 1
698 100 1
699 67 1
700 26 1
700 27 1
700 31 2
700 36 1
700 40 1
700 41 2
700 50 1
701 5 1
701 25 1
701 45 1
701 72 1
701 87 1
701 93 1
702 8 1
702 14 1
702 31 1
702 64 1
702 65 1
702 67 1
702 85 1
702 86 1
703 10 1
703 14 2
703 30 1
703 33 1
703 64 1
703 68 1
703 69 1
703 76 1
703 85 1
704 8 1
704 20 1
704 44 1
704 55 1
704 83 1
704 95 1
704 100 2
705 13 1
705 23 1
705 59 1
705 72 1
705 77 1
706 40 1
706 62 1
706 80 1
706 99 1
707 40 1
707 59 1
707 61 1
707 82 1
707 83 1
707 95 1
708 7 1
708 23 1
708 30 1
708 45 1
708 50 1
708 73 1
708 75 1
708 79 1
708 92 1
709 2 1
709 4 1
709 45 1
709 47 1
709 52 1
709 64 2
709 81 1
709 85 1
710 4 1
710 11 1
710 16 1
710 21 1
710 46 1
710 66 1
710 99 1
711 15 1
711 30 1
711 35 1
711 43 1
711 80 2
712 7 1
712 14 1
712 22 1
712 26 1
712 35 1
712 51 1
712 55 1
712 62 1
713 35 1
713 53 1
713 100 1
714 2 1
714 18 1
714 26 1
714 70 1
714 73 1
714 87 1
715 2 1
715 11 1
715 14 1
715 18 1
715 55 2
715 69 1
715 94 2
716 10 1
716 35 1
716 44 1
716 60 1
716 71 1
716 75 1
716 87 1
716 88 1
717 2 1
717 5 1
717 8 1
717 9 1
717 11 1
717 36 2
717 40 1
717 69 1
717 80 1
718 15 1
718 89 1
719 8 2
719 12 1
719 18 1
719 23 1
719 37 1
719 45 1
719 50 1
719 71 2
719 78 1
719 84 1
720 3 1
720 31 1
720 47 1
720 66 1
721 5 1
721 9 1
721 30 1
721 73 1
721 76 1
721 84 1
721 85 1
721 91 1
721 92 1
722 4 1
722 17 1
722 40 1
722 55 1
722 62 1
723 23 1
723 24 1
723 30 1
723 39 1
723 44 1
723 48 1
723 91 1
723 92 1
724 1 1
724 2 1
724 4 1
724 10 1
724 32 1
724 39 1
724 68 1
724 72 1
724 86 1
725 6 1
725 36 1
725 77 2
725 87 1
725 88 1
726 1 1
726 3 1
726 5 1
726 20 1
726 27 2
726 28 1
726 41 1
726 59 1
726 60 1
727 12 1
727 22 1
727 30 1
727 36 1
727 57 1
727 73 1
727 91 1
727 100 1
728 27 1
728 55 1
728 78 1
729 7 1
729 23 1
729 40 1
729 54 1
729 67 2
729 70 1
729 72 1
729 89 1
729 94 1
730 8 1
730 32 1
730 49 1
730 55 1
730 65 1
730 93 1
731 13 1
731 38 1
731 57 1
732 7 1
732 12 1
732 67 1
732 76 2
732 77 1
732 81 1
732 91 1
733 12 1
733 43 1
733 52 1
733 54 1
733 79 1
733 90 1
733 91 1
733 94 1
734 18 1
734 26 1
734 32 1
734 54 1
734 57 1
734 75 1
734 95 1
735 3 1
735 9 1
735 49 1
735 56 1
735 59 1
735 62 1
735 78 1
735 92 1
735 95 1
736 11 1
736 18 1
736 34 1
736 51 1
736 52 1
736 57 1
736 61 1
736 86 1
736 97 1
737 1 1
737 3 1
737 9 1
737 20 1
737 45 1
737 63 1
737 66 1
737 97 1
738 20 1
738 49 1
738 58 1
738 66 1
738 78 1
738 89 1
738 93 1
739 4 1
739 12 1
739 68 1
739 94 1
740 9 1
740 31 1
740 36 1
740 39 1
740 45 1
740 98 1
741 1 1
741 69 1
741 81 1
741 90 1
741 98 1
742 11 2
742 56 1
742 58 1
743 8 2
743 10 1
743 16 1
743 17 1
743 27 2
743 32 1
743 42 1
743 43 1
743 71 1
743 75 1
743 79 1
743 85 1
743 91 1
743 93 1
744 6 1
744 8 1
744 22 1
744 37 1
744 39 1
744 41 1
744 57 1
744 69 1
744 71 1
744 78 1
745 1 1
745 3 1
745 4 1
745 39 1
745 54 1
745 58 1
745 68 1
745 69 1
746 51 1
746 78 1
746 94 1
747 15 1
747 17 1
747 27 1
747 32 1
747 66 1
747 72 1
747 92 1
748 8 1
748 29 1
748 51 1
748 64 1
748 65 1
748 78 1
748 85 1
749 6 1
749 15 1
749 34 1
749 43 1
749 46 1
749 80 1
750 36 1
750 38 1
751 20 1
751 37 1
751 38 1
751 57 1
751 94 1
752 2 1
752 82 1
752 84 1
752 88 1
752 93 1
753 4 1
753 7 1
753 9 1
753 18 1
753 23 1
753 33 1
753 38 1
753 40 1
753 65 1
753 68 1
753 84 1
754 25 1
754 32 1
754 33 1
754 44 1
754 47 1
754 62 2
754 87 1
754 93 1
755 13 1
755 31 1
755 51 1
755 62 1
755 65 1
755 75 1
755 80 1
755 92 1
756 11 1
756 12 1
756 16 1
756 20 1
756 30 1
756 74 1
756 76 1
756 78 1
756 79 1
757 1 1
757 49 1
757 58 1
757 61 1
757 63 1
757 71 1
757 89 1
757 98 1
758 8 1
758 22 1
758 48 1
758 57 1
758 67 1
758 84 1
758 92 1
758 94 1
758 98 1
759 39 1
759 46 1
759 47 2
759 63 1
759 90 1
760 4 1
760 40 1
760 56 1
760 70 1
760 82 1
760 87 2
761 18 1
761 33 2
761 35 1
761 36 1
761 44 1
761 59 1
762 1 1
762 7 1
762 14 1
762 22 1
762 36 1
762 45 2
762 83 1
762 87 1
762 91 2
763 5 1
763 25 1
763 41 1
763 43 1
763 46 1
763 78 1
763 83 1
764 95 1
764 96 1
764 98 1
765 44 1
765 62 1
765 76 1
766 24 1
766 27 1
766 38 1
766 70 1
766 86 1
767 2 1
767 3 1
767 8 1
767 18 1
767 68 1
767 98 1
768 20 1
768 27 1
768 29 1
768 37 2
768 42 1
768 53 1
768 58 1
768 59 1
768 90 1
768 95 1
768 99 1
769 7 1
769 9 1
769 12 1
769 32 1
769 33 1
769 34 1
769 48 1
769 55 1
769 88 1
770 15 1
770 19 1
770 26 1
770 69 1
770 70 1
771 3 1
771 21 1
771 37 1
771 56 1
771 86 1
771 91 1
772 16 1
772 21 1
772 22 1
772 45 1
772 48 1
772 51 1
772 63 1
772 99 1
773 12 1
773 17 1
773 47 1
773 82 1
774 12 2
774 34 1
774 78 1
774 83 1
774 84 1
774 90 1
775 8 1
775 10 1
775 18 1
775 21 1
775 48 1
775 72 1
776 22 1
776 25 1
776 29 1
776 49 1
776 69 1
776 72 1
777 6 1
777 35 1
777 59 1
777 69 1
777 76 1
777 86 1
777 96 1
778 15 2
778 19 1
778 24 1
778 35 1
778 53 2
778 60 1
778 76 1
778 90 1
778 99 1
779 11 1
779 37 1
779 40 1
779 41 1
779 47 1
779 48 1
779 57 1
779 65 1
779 92 1
780 33 1
780 37 1
780 53 1
781 70 1
781 82 1
781 99 1
782 9 1
782 19 1
782 42 1
782 56 1
782 57 1
782 68 1
782 73 1
782 94 1
783 7 1
783 10 1
783 33 1
783 46 1
783 51 1
783 91 1
783 98 1
784 24 1
784 31 2
784 37 1
784 41 1
784 45 1
784 66 1
784 68 1
784 69 1
784 88 1
784 92 1
784 95 1
785 11 1
785 16 1
785 22 1
785 23 1
785 52 1
785 57 1
785 71 1
786 6 1
786 33 1
786 36 1
786 38 1
786 42 1
786 52 1
786 78 1
786 87 1
786 90 1
787 34 1
787 36 1
787 44 1
787 48 1
787 66 1
787 75 1
787 78 2
787 83 1
787 91 1
787 94 1
788 18 1
788 23 1
788 31 1
788 37 1
788 48 1
788 57 1
788 88 1
788 89 1
789 15 1
789 22 1
789 30 1
789 76 1
789 90 1
790 25 1
790 35 1
790 83 1
791 15 1
791 19 1
791 32 1
791 35 1
791 37 1
791 39 1
791 49 1
791 76 1
791 100 1
792 3 1
792 15 1
792 19 1
792 41 1
792 52 1
792 89 1
793 6 1
793 28 1
793 50 1
793 67 1
793 79 1
793 85 1
793 94 1
794 58 1
794 67 1
794 83 1
794 88 1
795 35 1
795 38 1
795 59 1
795 73 1
795 75 2
795 83 1
796 15 1
796 44 1
796 46 1
796 47 1
796 48 1
796 73 1
796 87 1
797 7 1
797 9 2
797 12 1
797 13 1
797 14 1
797 55 1
797 72 1
797 95 1
797 98 1
798 5 1
798 40 1
798 52 1
799 9 1
799 15 1
799 40 1
799 84 2
799 88 1
799 96 1
799 97 1
799 99 1
800 2 1
800 17 1
800 69 1
800 72 1
800 93 1
801 3 1
801 6 1
801 33 1
801 50 1
801 78 1
801 94 1
802 15 1
802 17 2
802 48 1
802 59 1
802 77 1
802 81 1
802 89 1
803 2 1
803 6 1
803 30 1
803 31 1
803 49 1
803 65 1
804 1 1
804 12 1
804 13 1
804 52 1
804 83 1
805 15 1
805 28 1
805 31 1
805 67 1
805 86 1
805 97 1
806 10 1
806 66 2
806 70 1
806 73 1
807 1 1
807 4 1
807 28 1
807 52 1
807 63 1
807 67 1
807 85 1
807 86 1
807 90 1
807 92 1
808 3 1
808 4 1
808 6 1
808 30 1
808 33 1
808 38 1
808 47 1
808 70 1
808 86 1
809 15 1
809 16 2
809 44 1
809 61 2
809 68 1
809 75 1
809 94 1
810 4 1
810 6 1
810 9 1
810 13 1
810 48 1
810 65 1
810 73 1
810 84 1
811 1 1
811 10 1
811 18 1
811 24 1
811 37 1
811 42 2
811 45 2
812 1 1
812 12 1
812 13 1
812 22 2
812 23 1
812 30 1
812 53 1
812 81 1
812 88 1
812 100 1
813 14 1
813 33 1
813 100 1
814 18 1
814 22 1
814 25 1
814 34 1
814 47 1
814 63 1
814 93 1
814 95 1
815 28 1
815 30 1
815 35 1
815 61 1
815 62 1
815 68 2
815 70 1
815 78 1
816 21 1
816 22 1
816 27 1
816 36 1
816 40 1
816 65 2
816 75 1
816 85 1
817 25 1
817 38 1
817 43 1
817 63 1
817 75 1
817 76 1
817 80 1
818 18 1
818 23 1
818 24 2
818 25 1
818 39 1
818 45 1
819 22 2
819 25 1
819 26 1
819 43 1
819 68 1
819 79 1
819 81 2
819 86 1
819 91 1
820 23 1
820 33 1
820 69 1
820 76 1
820 78 1
820 98 1
821 11 1
821 22 1
821 28 1
821 35 1
821 41 1
821 51 1
821 66 1
821 70 1
821 82 1
821 94 1
822 26 1
822 27 1
822 35 1
822 60 1
822 88 1
823 1 1
823 12 1
823 19 1
823 28 2
823 44 2
823 56 1
823 98 1
824 29 1
824 41 1
824 55 1
824 58 1
824 65 1
824 97 1
825 44 1
825 59 1
825 79 1
825 83 1
826 6 1
826 31 1
826 40 1
826 46 1
826 65 1
826 67 1
826 86 1
826 93 1
826 97 1
827 2 2
827 19 1
827 30 1
827 39 1
827 46 1
827 49 1
827 79 1
827 84 1
828 10 1
828 49 1
828 56 1
828 82 1
828 88 1
828 98 1
829 17 1
829 38 1
829 60 2
829 80 1
829 91 1
829 95 1
830 4 1
830 8 1
830 17 1
830 20 1
830 70 1
830 76 1
830 89 1
830 99 1
831 2 1
831 10 1
831 24 1
831 33 1
831 46 1
831 58 1
831 63 1
831 90 1
831 100 1
832 3 1
832 6 1
832 55 1
832 77 1
832 83 1
833 12 1
833 16 1
833 18 1
833 25 1
833 40 1
833 47 1
833 49 1
833 75 1
833 78 1
833 80 1
833 88 1
834 23 1
834 28 1
834 32 1
834 38 1
834 55 1
834 72 1
834 79 1
834 83 2
834 94 1
834 100 1
835 6 1
835 9 1
835 32 1
835 49 1
835 68 1
835 85 1
836 12 1
836 13 1
836 27 1
836 34 1
836 35 1
836 36 1
836 52 1
836 65 1
836 67 1
836 78 1
837 20 2
837 52 1
837 91 1
838 9 1
838 12 1
838 31 1
838 42 1
839 7 1
839 17 1
839 31 1
839 40 1
839 50 1
839 74 1
839 88 1
840 24 1
840 44 1
840 56 1
841 5 1
841 10 1
841 41 1
841 50 1
841 62 1
841 65 1
841 73 1
841 77 1
841 94 2
842 2 1
842 34 1
843 22 1
843 23 1
843 39 1
843 50 2
843 60 1
843 72 1
843 79 1
843 82 1
844 9 1
844 10 1
844 13 1
844 16 1
844 28 1
844 34 1
844 100 1
845 1 2
845 9 1
845 38 1
845 42 1
845 50 1
845 76 1
845 77 1
845 85 1
845 87 1
845 91 1
845 96 1
846 36 1
846 79 1
846 83 2
847 19 1
847 28 1
847 29 1
847 36 1
847 51 1
847 54 1
847 63 1
847 75 1
847 76 1
847 81 1
848 13 1
848 14 1
848 19 2
848 46 1
848 54 1
848 61 1
848 100 1
849 10 1
849 39 1
849 48 1
850 53 1
850 54 1
851 1 1
851 10 1
851 18 2
851 23 1
851 38 1
851 40 1
851 41 1
851 44 1
851 45 2
851 56 1
851 64 1
851 75 1
851 76 1
851 84 1
851 93 1
851 98 1
852 8 1
852 12 1
852 23 1
852 42 1
852 54 2
852 62 1
853 2 1
853 8 2
853 10 1
853 20 1
853 44 1
853 52 1
853 64 1
853 87 1
854 24 1
854 29 1
854 35 1
854 70 1
854 71 2
854 80 1
854 94 2
855 35 1
855 38 1
855 48 1
855 66 1
855 74 1
856 4 1
856 32 1
856 87 1
857 5 1
857 16 1
857 41 1
857 42 1
857 43 1
857 61 1
857 64 1
857 66 1
857 75 1
857 97 1
858 2 1
858 15 1
858 16 1
858 19 1
858 22 1
858 27 1
858 33 1
858 36 1
858 37 1
858 56 1
858 72 1
858 91 1
859 38 1
859 42 1
859 75 1
859 89 1
860 18 1
860 37 1
860 49 1
860 58 1
861 6 1
861 73 1
861 76 2
861 84 1
861 87 1
862 40 1
862 63 1
862 85 2
862 90 1
862 94 2
863 4 1
863 39 1
863 64 1
863 75 1
863 99 2
864 14 1
864 43 1
864 48 1
864 58 1
864 81 1
864 82 1
864 97 1
865 22 1
865 34 1
865 53 1
865 59 1
865 91 1
865 92 1
865 94 1
866 1 1
866 9 1
866 20 1
866 21 1
866 34 1
866 52 1
866 62 1
866 63 1
866 94 1
867 28 1
867 45 1
867 57 1
867 67 1
867 95 1
868 6 1
868 55 1
868 57 1
868 59 1
868 79 1
869 14 1
869 22 2
869 28 1
869 32 1
869 37 1
869 40 2
869 79 1
869 86 1
870 33 1
870 34 1
870 80 1
870 83 1
870 100 1
871 17 1
871 38 1
871 47 2
871 49 1
871 50 1
871 54 1
871 65 1
871 95 1
871 96 1
872 10 1
872 26 1
872 36 1
872 37 1
872 65 1
872 86 1
873 5 2
873 12 1
873 21 1
873 35 1
873 47 1
873 92 2
873 98 1
874 4 1
874 5 1
874 8 1
874 17 1
874 19 1
874 20 1
874 32 1
874 45 1
874 81 1
874 91 1
875 9 1
875 21 1
875 43 1
875 47 1
875 59 1
875 73 1
875 92 1
875 95 1
876 6 1
876 16 1
876 31 1
876 35 1
876 40 1
876 44 1
876 49 1
876 51 1
876 66 1
876 77 1
876 83 1
876 90 1
877 1 1
877 95 1
878 3 1
878 38 2
878 46 1
878 83 2
879 35 1
879 63 1
879 86 2
880 5 1
880 12 1
880 19 1
880 37 1
880 40 1
880 76 1
880 82 1
880 92 2
881 7 1
881 19 1
881 27 1
881 30 1
881 73 1
881 75 1
881 83 1
881 90 1
882 18 1
882 34 1
882 38 1
882 55 1
882 68 2
882 70 1
882 73 1
882 90 1
883 8 1
883 12 1
883 16 1
883 25 1
883 35 1
883 42 1
883 43 1
883 49 2
883 60 1
883 86 1
884 8 1
884 16 1
884 32 1
884 47 1
884 56 1
884 58 1
884 60 1
884 63 1
884 67 1
884 95 1
885 18 2
885 33 1
885 42 1
885 61 1
885 79 1
885 85 1
885 97 1
886 25 1
886 49 1
886 52 1
886 62 2
886 78 2
886 90 1
887 17 1
887 18 2
887 29 1
887 35 1
887 53 1
887 69 1
887 89 1
887 97 1
888 6 1
888 9 1
888 29 1
888 50 1
888 56 1
888 70 1
888 77 1
889 9 1
889 23 1
889 24 2
889 29 2
889 45 2
889 54 1
889 63 1
889 82 1
889 87 1
889 100 1
890 6 1
890 19 2
890 21 1
890 34 1
890 68 1
890 79 1
890 83 1
891 15 1
891 30 1
891 50 1
891 60 1
891 61 1
891 92 1
892 26 1
892 30 1
892 39 1
892 66 1
893 7 1
893 48 1
893 49 1
893 53 1
893 66 1
893 75 1
893 76 1
893 91 1
894 22 1
894 33 1
894 49 1
894 51 1
894 62 2
894 68 1
894 90 1
894 100 1
895 8 1
895 11 1
895 17 1
895 33 1
895 41 1
895 47 1
896 15 1
896 17 1
896 21 1
896 31 1
896 33 1
896 34 1
896 72 1
896 73 1
896 95 1
897 1 1
897 8 1
897 17 1
897 25 1
897 37 1
897 48 1
897 60 1
897 78 1
897 94 1
898 5 1
898 34 2
898 38 1
898 94 1
899 13 2
899 51 2
899 76 1
899 82 1
899 85 1
899 98 4
900 85 1
901 5 1
901 15 1
901 73 1
901 79 1
901 87 1
902 26 1
902 30 1
902 37 1
902 48 1
902 60 1
902 69 1
902 77 1
902 78 1
902 81 1
902 99 1
903 15 1
903 40 1
903 48 1
903 66 1
903 67 1
903 79 1
903 89 1
903 96 1
904 23 1
904 41 1
904 49 2
904 73 1
904 88 1
904 96 2
905 10 1
905 12 1
905 28 1
905 32 1
905 65 1
905 95 1
905 100 1
906 7 1
906 13 1
906 14 2
906 27 1
906 42 1
906 45 1
906 46 1
906 69 1
906 75 1
906 84 1
906 100 1
907 14 1
907 23 1
907 42 1
907 63 1
907 65 1
907 83 1
908 7 1
908 15 1
908 18 1
908 29 2
908 30 1
908 51 1
908 56 1
908 75 1
908 94 1
909 38 1
909 54 1
909 72 1
909 73 1
909 76 1
909 79 1
909 82 1
909 84 1
909 90 1
909 96 1
910 3 1
910 8 1
910 12 1
910 26 1
910 51 1
910 78 1
910 87 1
910 97 2
911 47 1
911 66 2
911 79 1
911 88 1
912 7 1
912 17 1
912 30 1
912 35 1
912 42 2
912 44 1
912 45 1
912 67 1
912 69 1
912 85 1
912 92 1
913 14 1
913 20 1
913 52 1
913 84 1
913 89 1
914 18 1
914 19 1
914 75 1
914 100 1
915 7 1
915 53 1
915 57 1
915 69 1
915 78 1
915 80 1
915 86 1
916 10 2
916 21 1
916 56 1
916 63 1
916 68 1
916 72 1
916 77 1
916 91 1
917 15 1
917 42 1
917 67 1
917 74 1
918 2 2
918 18 1
918 44 1
919 39 1
919 62 1
919 63 1
920 5 1
920 8 1
920 10 1
920 14 1
920 28 1
920 36 1
920 51 1
920 65 1
921 14 1
921 23 1
921 24 1
921 43 1
921 52 1
921 68 1
921 69 1
922 48 1
922 63 1
922 83 2
922 84 1
922 86 1
923 17 1
923 25 1
923 33 1
923 71 1
923 77 1
923 81 1
923 83 1
923 90 1
924 25 2
924 28 1
924 39 1
924 59 1
924 65 1
924 80 1
924 85 1
924 87 1
924 100 1
925 19 1
925 20 1
925 26 1
925 35 1
925 61 1
925 81 1
925 94 1
926 4 1
926 56 1
926 64 1
927 18 1
927 23 1
927 26 1
927 53 1
927 60 1
927 73 1
927 83 1
928 49 1
928 86 1
928 93 1
929 18 2
929 44 1
929 58 1
929 63 1
929 68 1
929 76 1
929 81 1
929 93 1
929 97 1
930 13 1
930 20 1
930 22 1
930 23 1
930 41 1
930 44 1
930 46 1
930 61 1
930 78 1
930 93 1
931 14 1
931 17 1
931 21 1
931 90 1
932 14 1
932 18 2
932 30 1
932 37 1
932 59 1
932 85 1
932 94 1
933 13 1
933 31 1
933 45 1
933 79 1
934 3 1
934 5 1
934 26 1
934 30 2
934 50 2
934 85 1
934 88 1
935 28 1
935 67 1
935 78 1
935 79 1
935 80 1
935 97 1
936 6 1
936 24 1
936 51 1
936 55 1
937 7 1
937 12 1
937 19 1
937 83 1
938 23 1
938 30 2
938 31 1
938 47 1
938 49 2
938 53 1
938 81 1
939 47 1
939 48 1
939 58 1
939 86 1
939 92 1
940 3 1
940 23 1
940 51 1
940 52 1
940 54 1
940 84 1
940 90 1
940 91 1
940 97 1
940 100 1
941 14 1
941 24 1
941 45 1
941 56 2
941 86 1
942 15 1
942 16 1
942 21 1
942 51 1
942 65 1
942 94 1
942 96 1
943 4 1
943 7 1
943 51 1
943 100 1
944 14 1
944 25 1
944 43 1
944 58 1
944 77 1
944 86 1
944 99 1
945 1 1
945 6 1
945 29 1
945 55 1
945 72 1
945 81 1
945 85 1
946 4 1
946 20 1
946 37 1
946 44 1
946 63 1
946 74 1
946 76 1
946 81 1
946 99 1
947 3 1
947 29 1
947 36 1
947 40 1
947 45 1
947 49 1
947 77 1
947 85 2
947 96 1
948 2 1
948 7 1
948 11 1
948 25 1
948 32 1
948 38 1
948 43 1
948 62 1
948 83 1
948 88 1
948 90 1
949 1 1
949 10 1
949 15 1
949 20 1
949 59 1
949 68 1
949 93 1
950 23 1
950 41 1
950 50 1
950 62 1
950 87 1
950 92 1
951 8 2
951 14 1
951 27 1
951 69 1
951 70 1
951 80 2
952 6 1
952 29 1
952 31 1
952 39 1
952 42 1
952 51 2
952 55 1
952 76 1
952 77 1
953 12 1
953 25 1
953 35 1
953 60 1
953 70 1
953 74 1
953 84 1
954 2 1
954 3 1
954 20 1
954 29 2
954 54 1
954 55 1
954 65 1
954 82 1
954 87 1
954 89 1
954 95 1
955 8 2
955 17 1
955 28 1
955 38 1
955 44 1
955 50 1
955 61 1
955 71 1
956 5 1
956 37 1
956 45 1
956 56 1
956 62 1
956 68 2
956 82 1
956 83 1
956 85 1
956 89 1
957 19 1
957 30 1
957 95 1
958 46 1
958 64 1
958 73 1
958 74 1
958 86 1
958 90 1
959 11 2
959 16 1
959 18 1
959 20 1
959 31 1
959 37 2
959 62 2
959 70 1
960 14 1
960 23 1
960 43 1
960 73 1
960 76 1
960 82 1
961 6 1
961 26 1
961 47 1
961 66 1
961 79 1
961 84 1
962 24 1
962 35 1
962 40 1
962 43 1
962 49 1
962 50 1
962 77 1
962 87 2
963 3 1
963 10 1
963 15 1
963 21 1
963 24 1
963 38 1
963 43 1
963 51 1
963 55 1
963 72 1
963 86 1
963 91 1
963 92 1
964 16 1
964 21 1
964 76 1
964 84 2
964 85 1
964 93 1
964 96 1
965 3 1
965 14 1
965 26 1
965 28 1
965 29 1
965 40 1
965 56 1
965 63 1
965 83 1
965 89 1
965 92 1
965 95 1
966 17 1
966 36 1
966 43 1
966 45 1
966 71 1
966 77 1
967 21 1
967 34 1
967 38 1
967 74 1
967 79 1
967 83 1
967 94 1
968 3 2
968 19 1
968 51 1
968 60 1
968 94 1
969 13 1
969 27 1
969 60 1
969 64 1
969 66 1
969 72 1
969 88 2
969 94 1
970 4 1
970 13 1
970 18 1
970 29 2
970 35 1
970 76 1
970 86 1
971 8 1
971 11 1
971 31 1
971 33 1
971 41 1
971 66 1
971 77 1
972 14 1
972 31 1
972 49 1
972 55 1
973 44 1
973 54 1
973 69 2
973 93 1
974 55 1
974 56 2
974 77 1
974 92 1
974 98 1
975 14 1
975 15 1
975 26 1
975 29 2
975 32 1
975 39 1
975 52 1
975 89 1
976 1 1
976 61 2
976 66 1
976 72 1
976 75 1
976 86 1
976 94 1
977 7 1
977 53 1
977 54 1
977 65 1
977 69 1
977 90 2
977 97 1
978 6 1
978 51 1
978 52 1
978 90 1
978 93 1
979 16 1
979 29 1
979 41 1
979 54 1
979 57 1
979 87 1
979 96 1
980 10 1
980 16 1
980 37 1
980 39 1
980 48 1
980 55 1
980 82 1
981 2 1
981 6 1
981 15 1
981 33 1
981 68 1
981 69 1
981 81 1
981 97 1
981 98 1
981 99 1
981 100 1
982 2 1
982 33 1
982 40 1
982 42 1
982 47 1
982 56 1
982 61 1
982 84 2
983 16 1
983 41 1
983 52 1
983 89 1
984 5 1
984 39 1
984 84 1
985 22 1
985 25 2
985 43 1
985 50 1
985 76 1
985 86 1
985 87 1
986 5 1
986 61 1
986 63 1
986 85 1
986 86 1
986 92 1
986 93 2
987 34 1
987 76 1
987 89 1
988 3 1
988 8 1
988 9 1
988 33 1
988 45 1
988 73 2
989 74 1
989 82 1
989 99 1
990 11 1
990 25 1
990 31 1
990 65 1
990 67 1
990 83 1
990 85 1
990 90 1
991 3 1
991 14 1
991 53 1
991 54 1
991 63 1
991 71 1
991 75 1
991 85 1
992 18 1
992 33 1
992 60 1
992 85 1
993 1 1
993 11 1
993 13 1
993 35 1
993 55 1
993 87 1
993 95 1
993 100 1
994 19 1
994 21 1
994 28 1
994 36 1
994 41 1
994 69 1
994 73 1
994 81 1
994 86 2
995 13 1
995 18 1
995 38 1
995 45 1
995 72 1
995 74 1
995 81 1
995 94 2
996 1 1
996 8 1
996 10 1
996 17 1
996 55 1
996 72 2
996 75 1
996 86 1
996 93 1
997 19 1
997 38 1
997 50 1
997 75 1
997 89 1
998 11 2
998 13 1
998 24 1
998 30 1
998 51 1
999 5 1
999 17 1
999 28 1
999 54 1
999 59 1
999 76 1
999 77 2
1000 41 1
1000 46 1
1000 77 1
